N  O  C 
 1.0000000000000000
     9.8654639999999993    0.0000000000000000    0.0000000000000000
    -4.9327329999999998    8.5437419999999999    0.0000000000000000
     0.0000000000000000    0.0000000000000000   26.7272740000000013
 N   O   C  
   1   1  96
Direct
  0.2243513023882934  0.0399473673245283  0.5087312682917083
  0.1262175720355122  0.9161442375015538  0.5151816081206037
  0.9996738951095920  0.0003257471960179  0.0003673101865907
  0.9996743064729685  0.2503259110586439  0.0003672716491775
  0.9996743140319351  0.5003252673126132  0.0003672611729876
  0.9996738931776165  0.7503257940139110  0.0003673083158425
  0.2496747054340223  0.0003257460255705  0.0003673083158425
  0.2496741037455550  0.2503259110586439  0.0003673180437332
  0.2496740160226370  0.5003252673126132  0.0003672720233272
  0.2496747040872707  0.7503257940139110  0.0003672615471372
  0.4996740990074530  0.0003257495369125  0.0003672611729876
  0.4996745092003820  0.2503259110586439  0.0003673086899921
  0.4996745167593484  0.5003252673126132  0.0003673202886310
  0.4996740959050300  0.7503257940139110  0.0003672720233272
  0.7496745044622801  0.0003257495369125  0.0003672716491775
  0.7496739010181415  0.2503259110586439  0.0003672664110826
  0.7496739085771078  0.5003252673126132  0.0003673086899921
  0.7496745013598571  0.7503257940139110  0.0003673180437332
  0.0830075800666932  0.1669924021582112  0.0003612972276933
  0.0830082377222149  0.4169929288595091  0.0003612515814370
  0.0830072316441136  0.6669922851134784  0.0003612691664702
  0.0830078244268629  0.9169928118147763  0.0003613047106862
  0.3330080503942927  0.1669924021582112  0.0003613129419783
  0.3330076295399743  0.4169929288595091  0.0003612968535437
  0.3330075215443150  0.6669922851134784  0.0003612568195320
  0.3330082298816900  0.9169928118147763  0.0003612691664702
  0.5830074422120520  0.1669924021582112  0.0003612687923205
  0.5830080349948014  0.4169929288595091  0.0003613159351754
  0.5830070289167002  0.6669922851134784  0.0003612968535437
  0.5830076216994495  0.9169928118147763  0.0003612515814370
  0.8330078476668792  0.1669924021582112  0.0003612523297363
  0.8330074268125608  0.4169929288595091  0.0003612687923205
  0.8330074343715272  0.6669922851134784  0.0003613129419783
  0.8330080271542766  0.9169928118147763  0.0003612972276933
  0.8737918428166678  0.0765968822560419  0.1260543817525124
  0.8769350195988640  0.3293287648433204  0.1237035995515293
  0.8835850745502372  0.5821816716843744  0.1252768987963382
  0.8830182619105792  0.8302790510293967  0.1229021710182640
  0.1222887847041319  0.0709030071366855  0.1313497216364078
  0.1263405448983266  0.3243356365395865  0.1236781573758701
  0.1252790054657588  0.5720491091608337  0.1271764565290123
  0.1286787785330505  0.8297055318383912  0.1336170684672144
  0.3782776644159551  0.0860303365902201  0.1303312863107551
  0.3779624430350606  0.3253703119780537  0.1289297217516459
  0.3808890005246216  0.5808485321771187  0.1218268649470200
  0.3688196688447413  0.8233219121083011  0.1282162183842617
  0.6235028527382426  0.0749898580738978  0.1191599262985069
  0.6157871249319370  0.3258104001736007  0.1224490758017447
  0.6324787399692610  0.5790940316315731  0.1193035997610531
  0.6263089518196266  0.8292478869329154  0.1184097562662021
  0.0423980840162703  0.1559293340084474  0.1262945858227068
  0.0423447673066448  0.4088384223212733  0.1273354701268824
  0.0517037833525517  0.6613132746751950  0.1314241774151752
  0.0418803465207181  0.9048470798860734  0.1345569323680372
  0.2914249490143372  0.1662409749732611  0.1338988031476760
  0.3017098069433564  0.4103553220591165  0.1248339056201541
  0.2989783709811885  0.6652120347267041  0.1262100280036041
  0.2926347475709881  0.9121307736118436  0.1319427488190528
  0.5417054038044868  0.1620613075628922  0.1265400279878898
  0.5393596945113056  0.4087822408495013  0.1236613206419779
  0.5536910612414312  0.6648199348716288  0.1212817289185571
  0.5379294768044441  0.9107648615793876  0.1184374433397136
  0.7877915812994091  0.1600855924722446  0.1190050283466993
  0.7907183151298689  0.4116790979877435  0.1263881232332186
  0.7964943294769511  0.6632339787413993  0.1169172733440754
  0.7959306409226340  0.9109240424160748  0.1221591098291580
  0.2064488582640472  0.3470025195049195  0.2431070972670090
  0.2043939956505719  0.5953960220240733  0.2424332537616818
  0.2069010371797844  0.0980541079072847  0.2575148516829662
  0.2038437004735514  0.8493795809845381  0.2528772668697900
  0.4504977660339151  0.8407299752263119  0.2549493075874479
  0.4567472850161385  0.1037242229458708  0.2553485252555124
  0.4511078202120672  0.5973682257727352  0.2484989677585526
  0.4556032167722611  0.3511658006526883  0.2503577431802435
  0.9507185725910650  0.3434829843878712  0.2373425737319863
  0.9556928576095942  0.5971949995681050  0.2446512128397381
  0.9574911352166050  0.0944657504873157  0.2478733895570495
  0.9549224117606945  0.8473746047106759  0.2471097501376310
  0.7109532078994936  0.8512265468690418  0.2430390020321564
  0.7038517678650472  0.0960855325453414  0.2492682194226018
  0.7042987773836116  0.6016146086808333  0.2427834578266381
  0.7035219114355989  0.3526077917615021  0.2490467228345098
  0.2854065474867131  0.5141845341303611  0.2396899885861910
  0.2891236912216765  0.7681563886175402  0.2516567907374317
  0.2840200225905485  0.2654855448584473  0.2505369608587842
  0.2917906116038012  0.0184785542447326  0.2557043415650994
  0.5381565540842579  0.0180334331256726  0.2571208721098904
  0.5397135214849635  0.2672786701658360  0.2564462803052792
  0.5398158013496532  0.7642342196194595  0.2433577775271807
  0.5401591100602186  0.5148809502908679  0.2436294101673070
  0.0378849135119919  0.5138474452997294  0.2364685601681638
  0.0391333303168644  0.7667916470324128  0.2491907704466980
  0.0401377065437420  0.2633213877478978  0.2408528456736740
  0.0376417239178614  0.0109438463848745  0.2547087293676115
  0.7904357437498229  0.0143764874922487  0.2467924712411748
  0.7882829226999183  0.2614264335229224  0.2480133215231752
  0.7935824415572957  0.7692589500010651  0.2376295465074366
  0.7827033221263257  0.5123633180870865  0.2443189679576002
Cartesian
 -0.0137706000000000 -0.0018982300000000  0.0160393000000000
  0.0060137800000000 -0.0006719740000000  0.0130031000000000
  0.0000000000000000  0.0000000000000000  0.0000000000000000
  0.0000000000000000  0.0000000000000000  0.0000000000000000
  0.0000000000000000  0.0000000000000000  0.0000000000000000
  0.0000000000000000  0.0000000000000000  0.0000000000000000
  0.0000000000000000  0.0000000000000000  0.0000000000000000
  0.0000000000000000  0.0000000000000000  0.0000000000000000
  0.0000000000000000  0.0000000000000000  0.0000000000000000
  0.0000000000000000  0.0000000000000000  0.0000000000000000
  0.0000000000000000  0.0000000000000000  0.0000000000000000
  0.0000000000000000  0.0000000000000000  0.0000000000000000
  0.0000000000000000  0.0000000000000000  0.0000000000000000
  0.0000000000000000  0.0000000000000000  0.0000000000000000
  0.0000000000000000  0.0000000000000000  0.0000000000000000
  0.0000000000000000  0.0000000000000000  0.0000000000000000
  0.0000000000000000  0.0000000000000000  0.0000000000000000
  0.0000000000000000  0.0000000000000000  0.0000000000000000
  0.0000000000000000  0.0000000000000000  0.0000000000000000
  0.0000000000000000  0.0000000000000000  0.0000000000000000
  0.0000000000000000  0.0000000000000000  0.0000000000000000
  0.0000000000000000  0.0000000000000000  0.0000000000000000
  0.0000000000000000  0.0000000000000000  0.0000000000000000
  0.0000000000000000  0.0000000000000000  0.0000000000000000
  0.0000000000000000  0.0000000000000000  0.0000000000000000
  0.0000000000000000  0.0000000000000000  0.0000000000000000
  0.0000000000000000  0.0000000000000000  0.0000000000000000
  0.0000000000000000  0.0000000000000000  0.0000000000000000
  0.0000000000000000  0.0000000000000000  0.0000000000000000
  0.0000000000000000  0.0000000000000000  0.0000000000000000
  0.0000000000000000  0.0000000000000000  0.0000000000000000
  0.0000000000000000  0.0000000000000000  0.0000000000000000
  0.0000000000000000  0.0000000000000000  0.0000000000000000
  0.0000000000000000  0.0000000000000000  0.0000000000000000
  0.0085262700000000  0.0039953300000000 -0.0017662500000000
  0.0010537200000000 -0.0056886200000000 -0.0064308500000000
  0.0038839600000000  0.0075687900000000  0.0016509900000000
  0.0027550800000000 -0.0139401000000000  0.0057985900000000
 -0.0079797300000000 -0.0010429900000000  0.0023500900000000
  0.0008514170000000 -0.0122078000000000 -0.0030778300000000
 -0.0090392500000000 -0.0007879810000000 -0.0082573700000000
 -0.0024318800000000 -0.0049151100000000  0.0122527000000000
 -0.0077690100000000 -0.0033973100000000  0.0181436000000000
 -0.0016129500000000 -0.0033823000000000 -0.0021175900000000
 -0.0008108880000000 -0.0035095700000000  0.0043946800000000
  0.0029223600000000 -0.0029109300000000  0.0110569000000000
  0.0017118300000000 -0.0104381000000000 -0.0087484100000000
 -0.0071218900000000 -0.0051735000000000  0.0074524000000000
  0.0008143410000000 -0.0026414500000000 -0.0041715500000000
 -0.0092500400000000  0.0002106980000000 -0.0122369000000000
  0.0060501300000000 -0.0055554600000000  0.0121333000000000
 -0.0036270900000000 -0.0039550900000000  0.0043687900000000
  0.0024085200000000 -0.0127158000000000  0.0151774000000000
  0.0051751300000000  0.0005118300000000 -0.0022227700000000
 -0.0024494100000000 -0.0091734000000000  0.0076141700000000
 -0.0102688000000000  0.0061299500000000 -0.0012911400000000
 -0.0001987390000000  0.0006241810000000 -0.0010227000000000
  0.0036814900000000 -0.0048691700000000 -0.0083487100000000
  0.0094161400000000  0.0029412900000000  0.0022949200000000
  0.0060630700000000 -0.0017883300000000  0.0021076000000000
 -0.0028964500000000  0.0049353800000000 -0.0018518800000000
 -0.0027876000000000  0.0011996800000000  0.0110040000000000
 -0.0018339600000000 -0.0024351400000000 -0.0043284000000000
 -0.0002269450000000 -0.0001818150000000  0.0003880310000000
  0.0073716300000000  0.0092607000000000  0.0079128100000000
 -0.0056921100000000 -0.0087307100000000 -0.0021114300000000
  0.0034123400000000  0.0034750200000000 -0.0034727000000000
  0.0015179500000000  0.0090021600000000  0.0000274272000000
  0.0075291600000000 -0.0002587520000000 -0.0058546900000000
 -0.0037580100000000 -0.0011599000000000 -0.0051297000000000
 -0.0072907700000000 -0.0047644200000000 -0.0076545900000000
 -0.0000483282000000 -0.0015682800000000 -0.0036140100000000
  0.0061474000000000  0.0032341400000000  0.0044392100000000
 -0.0167233000000000  0.0049952800000000 -0.0129112000000000
 -0.0047913300000000 -0.0009002970000000 -0.0080228100000000
 -0.0058385600000000 -0.0050281300000000  0.0050681400000000
 -0.0009360050000000 -0.0001722460000000  0.0058570900000000
 -0.0040128800000000  0.0057419700000000 -0.0004035730000000
  0.0128850000000000  0.0026702500000000  0.0041538000000000
  0.0000890785000000 -0.0011859800000000  0.0093753000000000
 -0.0038995400000000 -0.0013320400000000 -0.0063032600000000
  0.0062304800000000  0.0130875000000000  0.0046915800000000
  0.0006049550000000  0.0077671900000000  0.0044847200000000
  0.0010007400000000 -0.0040838400000000  0.0067282900000000
 -0.0199708000000000  0.0034238900000000  0.0089967900000000
  0.0091154200000000  0.0051553700000000 -0.0014230800000000
 -0.0071749400000000 -0.0092118300000000 -0.0010852400000000
  0.0070674000000000 -0.0045489900000000  0.0002237080000000
  0.0039152800000000 -0.0021268500000000  0.0026640600000000
 -0.0036421700000000  0.0119937000000000  0.0230981000000000
  0.0071790800000000  0.0032682100000000 -0.0061366200000000
  0.0031787700000000 -0.0034397700000000  0.0066224600000000
 -0.0011858400000000 -0.0009924040000000 -0.0005591090000000
  0.0018798700000000 -0.0007976820000000  0.0027079500000000
 -0.0125475000000000 -0.0120692000000000 -0.0088951800000000
  0.0024346600000000  0.0003508720000000 -0.0149336000000000
 -0.0079737800000000  0.0122514000000000  0.0123836000000000
  0.0100501000000000 -0.0030650300000000  0.0010283000000000
