N  O  C 
 1.0000000000000000
     9.8654639999999993    0.0000000000000000    0.0000000000000000
    -4.9327329999999998    8.5437419999999999    0.0000000000000000
     0.0000000000000000    0.0000000000000000   26.7272740000000013
 N   O   C  
   1   1  96
Direct
  0.3976015989501859  0.7196483695317578  0.6433390850110641
  0.3740125544442430  0.6039754009425847  0.6230003104693730
  0.9996738951095920  0.0003257471960179  0.0003673101865907
  0.9996743064729685  0.2503259110586439  0.0003672716491775
  0.9996743140319351  0.5003252673126132  0.0003672611729876
  0.9996738931776165  0.7503257940139110  0.0003673083158425
  0.2496747054340223  0.0003257460255705  0.0003673083158425
  0.2496741037455550  0.2503259110586439  0.0003673180437332
  0.2496740160226370  0.5003252673126132  0.0003672720233272
  0.2496747040872707  0.7503257940139110  0.0003672615471372
  0.4996740990074530  0.0003257495369125  0.0003672611729876
  0.4996745092003820  0.2503259110586439  0.0003673086899921
  0.4996745167593484  0.5003252673126132  0.0003673202886310
  0.4996740959050300  0.7503257940139110  0.0003672720233272
  0.7496745044622801  0.0003257495369125  0.0003672716491775
  0.7496739010181415  0.2503259110586439  0.0003672664110826
  0.7496739085771078  0.5003252673126132  0.0003673086899921
  0.7496745013598571  0.7503257940139110  0.0003673180437332
  0.0830075800666932  0.1669924021582112  0.0003612972276933
  0.0830082377222149  0.4169929288595091  0.0003612515814370
  0.0830072316441136  0.6669922851134784  0.0003612691664702
  0.0830078244268629  0.9169928118147763  0.0003613047106862
  0.3330080503942927  0.1669924021582112  0.0003613129419783
  0.3330076295399743  0.4169929288595091  0.0003612968535437
  0.3330075215443150  0.6669922851134784  0.0003612568195320
  0.3330082298816900  0.9169928118147763  0.0003612691664702
  0.5830074422120520  0.1669924021582112  0.0003612687923205
  0.5830080349948014  0.4169929288595091  0.0003613159351754
  0.5830070289167002  0.6669922851134784  0.0003612968535437
  0.5830076216994495  0.9169928118147763  0.0003612515814370
  0.8330078476668792  0.1669924021582112  0.0003612523297363
  0.8330074268125608  0.4169929288595091  0.0003612687923205
  0.8330074343715272  0.6669922851134784  0.0003613129419783
  0.8330080271542766  0.9169928118147763  0.0003612972276933
  0.0900367376982599  0.2928435807167398  0.1176524773906984
  0.0920292516621832  0.5406518595716022  0.1308274087361098
  0.0929604031487126  0.7882319011973911  0.1275625789596051
  0.0845402391230259  0.0389645427027174  0.1215918989718143
  0.3270602058396277  0.2859835889239165  0.1284403340198480
  0.3455311290555154  0.5400490791973822  0.1192111847994674
  0.3437800078932574  0.7982427371987590  0.1322574086680146
  0.3349159218870479  0.0371885059263260  0.1415456735318387
  0.5888837103990957  0.2900848363632703  0.1383990750422209
  0.5882010416900288  0.5331539739847013  0.1234899601059203
  0.5912804495765449  0.7895006661015747  0.1214224091839669
  0.5951801881672580  0.0427346705928152  0.1341423745646488
  0.8470919796483963  0.2883361880543678  0.1316860821646083
  0.8459718072960787  0.5443563253665665  0.1320823066355364
  0.8448522185483330  0.7885748422646658  0.1155123414381878
  0.8315988612192261  0.0358094848837898  0.1202980895096148
  0.2519111982541501  0.3751295392580909  0.1186626814242261
  0.2627769992613113  0.6243119232767095  0.1231165587631571
  0.2573498765730259  0.8738676799931459  0.1391148233074574
  0.2484655264663753  0.1196735575582690  0.1279004360863738
  0.5052449626582414  0.3726587249474528  0.1331886671270703
  0.5085680372313111  0.6257504030435377  0.1206490418738551
  0.5113242726039484  0.8709052778045030  0.1289087693716913
  0.5078406066938185  0.1261355972593741  0.1394766260113171
  0.7531367336311133  0.3668743742495970  0.1372092791805105
  0.7618702441746164  0.6225784907830784  0.1193166949985247
  0.7554976649571787  0.8703481448760976  0.1174182597147767
  0.7625514681090991  0.1222555643651224  0.1271240755791256
  0.0148430950619364  0.3749633357374322  0.1215675792450813
  0.0129081573886100  0.6255163135778210  0.1308947556716783
  0.0119210765430087  0.8718264198520976  0.1223050281895565
  0.0044247117503104  0.1230163551287012  0.1219514567778218
  0.6379692033708289  0.0721855833193465  0.2690412797055173
  0.6450211959269017  0.3283338846140251  0.2744821638001690
  0.6487643622003186  0.8294492038734316  0.2536749539066349
  0.6373290063248876  0.5799718671280102  0.2649428445265312
  0.8902648605932317  0.5747961490410174  0.2665640349255222
  0.8945010709980988  0.8265312786832749  0.2623990011102517
  0.8895263374383849  0.3235245165408787  0.2598203617772617
  0.8888192367446347  0.0796787871169331  0.2593077767676569
  0.3956431918613568  0.0774831449732448  0.2726323679698872
  0.3894985745638890  0.3285469060278272  0.2707129803061846
  0.3961720993482383  0.8271024569796233  0.2553870626686433
  0.3903137391443217  0.5728520360282415  0.2552183211800800
  0.1421442407347184  0.5762381401498313  0.2573629469282950
  0.1410629647811990  0.8295931688948472  0.2639838989939640
  0.1394513949966099  0.3243789430907441  0.2585957699988409
  0.1493009808268161  0.0831655497087810  0.2665554294837550
  0.7208799200851822  0.2440523133774405  0.2699426061932093
  0.7204428053539725  0.4907568604014494  0.2711941367458575
  0.7280166763214270  0.9943336303928653  0.2621786269710858
  0.7312647456827746  0.7485314982591937  0.2590387631750249
  0.9789897365530066  0.7411728959043942  0.2655347492602500
  0.9761157035283563  0.9945712312005677  0.2639812799464697
  0.9736434826602086  0.4899808538225991  0.2612133208946038
  0.9733569099122275  0.2427776962366139  0.2606614501725840
  0.4759544155396426  0.2431311713298459  0.2737959733566543
  0.4722661837601831  0.4942787364131548  0.2652283207034133
  0.4748327556396900  0.9960588697551963  0.2653772322609481
  0.4831433830014454  0.7418775051962009  0.2551438654013126
  0.2262651350623252  0.7480843873796751  0.2578916203725078
  0.2343396632440993  1.0048383951668953  0.2676872321509481
  0.2268958952535542  0.4950009024148904  0.2571204979602484
  0.2238158466516886  0.2433067384291333  0.2660529465144856
Cartesian
 -0.0119667000000000  0.0139009000000000  0.0189202000000000
 -0.0017655300000000  0.0024500100000000  0.0112077000000000
  0.0000000000000000  0.0000000000000000  0.0000000000000000
  0.0000000000000000  0.0000000000000000  0.0000000000000000
  0.0000000000000000  0.0000000000000000  0.0000000000000000
  0.0000000000000000  0.0000000000000000  0.0000000000000000
  0.0000000000000000  0.0000000000000000  0.0000000000000000
  0.0000000000000000  0.0000000000000000  0.0000000000000000
  0.0000000000000000  0.0000000000000000  0.0000000000000000
  0.0000000000000000  0.0000000000000000  0.0000000000000000
  0.0000000000000000  0.0000000000000000  0.0000000000000000
  0.0000000000000000  0.0000000000000000  0.0000000000000000
  0.0000000000000000  0.0000000000000000  0.0000000000000000
  0.0000000000000000  0.0000000000000000  0.0000000000000000
  0.0000000000000000  0.0000000000000000  0.0000000000000000
  0.0000000000000000  0.0000000000000000  0.0000000000000000
  0.0000000000000000  0.0000000000000000  0.0000000000000000
  0.0000000000000000  0.0000000000000000  0.0000000000000000
  0.0000000000000000  0.0000000000000000  0.0000000000000000
  0.0000000000000000  0.0000000000000000  0.0000000000000000
  0.0000000000000000  0.0000000000000000  0.0000000000000000
  0.0000000000000000  0.0000000000000000  0.0000000000000000
  0.0000000000000000  0.0000000000000000  0.0000000000000000
  0.0000000000000000  0.0000000000000000  0.0000000000000000
  0.0000000000000000  0.0000000000000000  0.0000000000000000
  0.0000000000000000  0.0000000000000000  0.0000000000000000
  0.0000000000000000  0.0000000000000000  0.0000000000000000
  0.0000000000000000  0.0000000000000000  0.0000000000000000
  0.0000000000000000  0.0000000000000000  0.0000000000000000
  0.0000000000000000  0.0000000000000000  0.0000000000000000
  0.0000000000000000  0.0000000000000000  0.0000000000000000
  0.0000000000000000  0.0000000000000000  0.0000000000000000
  0.0000000000000000  0.0000000000000000  0.0000000000000000
  0.0000000000000000  0.0000000000000000  0.0000000000000000
 -0.0031210500000000 -0.0005571480000000 -0.0011149400000000
 -0.0071656500000000  0.0074425100000000  0.0048022100000000
  0.0006445050000000 -0.0103406000000000  0.0053186000000000
  0.0037649300000000 -0.0065911000000000 -0.0066700900000000
 -0.0044316900000000 -0.0073398600000000  0.0030368900000000
  0.0005224410000000 -0.0135295000000000  0.0025328100000000
 -0.0016592200000000 -0.0025340000000000 -0.0021966400000000
 -0.0037466900000000  0.0047228200000000 -0.0102955000000000
 -0.0062279800000000 -0.0029912500000000 -0.0070420900000000
  0.0059641500000000  0.0068094700000000 -0.0034340800000000
 -0.0143962000000000 -0.0051887300000000  0.0031376200000000
 -0.0006465100000000 -0.0043992400000000 -0.0164092000000000
 -0.0103726000000000  0.0005596850000000 -0.0044714200000000
  0.0013424500000000 -0.0019370500000000 -0.0103585000000000
 -0.0062698700000000  0.0055643000000000 -0.0027310100000000
  0.0024078500000000 -0.0019266100000000  0.0034744700000000
  0.0029981800000000  0.0063948600000000  0.0047708200000000
  0.0005225940000000  0.0045703000000000 -0.0012961800000000
 -0.0055177100000000  0.0012747100000000  0.0015777300000000
  0.0045088300000000  0.0047507700000000 -0.0002594160000000
 -0.0040153900000000 -0.0001953920000000  0.0081176900000000
  0.0022242500000000 -0.0044644200000000 -0.0028572900000000
  0.0044348800000000  0.0026068100000000  0.0014638500000000
 -0.0005471770000000 -0.0061184100000000  0.0037525900000000
 -0.0021244400000000  0.0048267700000000  0.0053336100000000
  0.0016984400000000  0.0024847200000000  0.0000892465000000
  0.0006458050000000  0.0035182900000000 -0.0017281200000000
  0.0007784080000000  0.0014668700000000  0.0041199900000000
 -0.0023045300000000 -0.0032015500000000 -0.0028507900000000
  0.0075656400000000 -0.0077704500000000  0.0011597700000000
  0.0022822400000000 -0.0012736200000000 -0.0093897700000000
 -0.0033026800000000  0.0023822000000000  0.0035337900000000
  0.0040654400000000 -0.0005040740000000 -0.0010313100000000
 -0.0089490500000000 -0.0002078030000000 -0.0090128400000000
 -0.0028240100000000 -0.0079327800000000  0.0217228000000000
  0.0038829300000000  0.0069516200000000 -0.0007039020000000
 -0.0003664540000000  0.0018056900000000  0.0045312500000000
 -0.0086592800000000 -0.0023362600000000  0.0171816000000000
 -0.0002199930000000 -0.0031192300000000 -0.0122884000000000
 -0.0079901100000000  0.0064148900000000  0.0042991800000000
 -0.0082025600000000 -0.0075675400000000 -0.0055681300000000
  0.0024201600000000  0.0085542000000000  0.0069081900000000
  0.0122437000000000  0.0003396750000000  0.0020532300000000
 -0.0059437200000000  0.0054091900000000  0.0096550500000000
  0.0059435700000000 -0.0009331740000000  0.0078036300000000
  0.0022522000000000 -0.0011001200000000  0.0129220000000000
  0.0028715000000000  0.0146571000000000  0.0114236000000000
  0.0038668200000000  0.0008825210000000 -0.0018720700000000
  0.0017877200000000  0.0031532500000000  0.0051910600000000
  0.0078330500000000  0.0098178200000000  0.0021182200000000
  0.0061951000000000  0.0082670000000000  0.0010617300000000
 -0.0106760000000000 -0.0045660100000000 -0.0028459800000000
  0.0083995600000000 -0.0005513880000000 -0.0063818700000000
 -0.0027833100000000  0.0026928900000000  0.0061240100000000
 -0.0033991100000000 -0.0035669700000000  0.0031631700000000
  0.0094501300000000  0.0017513500000000  0.0083741100000000
 -0.0118629000000000  0.0057823400000000  0.0042824100000000
  0.0029290100000000 -0.0023850700000000 -0.0014551300000000
 -0.0003445810000000  0.0061249500000000 -0.0053685800000000
  0.0054810000000000 -0.0016984300000000 -0.0038659500000000
 -0.0005358590000000 -0.0020200400000000 -0.0009186440000000
 -0.0086859400000000 -0.0024619400000000 -0.0123741000000000
 -0.0067103500000000 -0.0063670400000000  0.0103275000000000
 -0.0103255000000000  0.0016472400000000 -0.0128682000000000
