N  O  C 
 1.0000000000000000
     9.8654639999999993    0.0000000000000000    0.0000000000000000
    -4.9327329999999998    8.5437419999999999    0.0000000000000000
     0.0000000000000000    0.0000000000000000   26.7272740000000013
 N   O   C  
   1   1  96
Direct
  0.4530823237836933  0.6345989848476230  0.5862288836489647
  0.3639723480993021  0.5073163492062378  0.5690890885467781
  0.9996738951095920  0.0003257471960179  0.0003673101865907
  0.9996743064729685  0.2503259110586439  0.0003672716491775
  0.9996743140319351  0.5003252673126132  0.0003672611729876
  0.9996738931776165  0.7503257940139110  0.0003673083158425
  0.2496747054340223  0.0003257460255705  0.0003673083158425
  0.2496741037455550  0.2503259110586439  0.0003673180437332
  0.2496740160226370  0.5003252673126132  0.0003672720233272
  0.2496747040872707  0.7503257940139110  0.0003672615471372
  0.4996740990074530  0.0003257495369125  0.0003672611729876
  0.4996745092003820  0.2503259110586439  0.0003673086899921
  0.4996745167593484  0.5003252673126132  0.0003673202886310
  0.4996740959050300  0.7503257940139110  0.0003672720233272
  0.7496745044622801  0.0003257495369125  0.0003672716491775
  0.7496739010181415  0.2503259110586439  0.0003672664110826
  0.7496739085771078  0.5003252673126132  0.0003673086899921
  0.7496745013598571  0.7503257940139110  0.0003673180437332
  0.0830075800666932  0.1669924021582112  0.0003612972276933
  0.0830082377222149  0.4169929288595091  0.0003612515814370
  0.0830072316441136  0.6669922851134784  0.0003612691664702
  0.0830078244268629  0.9169928118147763  0.0003613047106862
  0.3330080503942927  0.1669924021582112  0.0003613129419783
  0.3330076295399743  0.4169929288595091  0.0003612968535437
  0.3330075215443150  0.6669922851134784  0.0003612568195320
  0.3330082298816900  0.9169928118147763  0.0003612691664702
  0.5830074422120520  0.1669924021582112  0.0003612687923205
  0.5830080349948014  0.4169929288595091  0.0003613159351754
  0.5830070289167002  0.6669922851134784  0.0003612968535437
  0.5830076216994495  0.9169928118147763  0.0003612515814370
  0.8330078476668792  0.1669924021582112  0.0003612523297363
  0.8330074268125608  0.4169929288595091  0.0003612687923205
  0.8330074343715272  0.6669922851134784  0.0003613129419783
  0.8330080271542766  0.9169928118147763  0.0003612972276933
  0.1034780014102363  0.2944646502668268  0.1378610478569569
  0.1068813084160219  0.5447940726674565  0.1331179528447233
  0.1012230002083304  0.7973251064931502  0.1236774090765860
  0.1103888919043036  0.0475161820195413  0.1381936668887370
  0.3639493322478116  0.3055464455738481  0.1317429529101995
  0.3550901778751437  0.5504543559484826  0.1367236329451331
  0.3520401216171236  0.7995302292602001  0.1251590416590933
  0.3560574096226726  0.0434062732699560  0.1220289057537256
  0.6058629867232525  0.2990329061902853  0.1172225794519860
  0.6067715860586957  0.5493026357771572  0.1347286670537370
  0.6027680711856627  0.7949643142313989  0.1393011498291969
  0.6063842872758042  0.0463642277587502  0.1234252322178461
  0.8527194781401956  0.2971320997286669  0.1291209122187321
  0.8558100668430011  0.5479788598485301  0.1290894836488001
  0.8531798750843655  0.7972244480228921  0.1437254693464062
  0.8587233343955197  0.0496974276610881  0.1367064220615989
  0.2682949910201259  0.3775804559641431  0.1394321022039135
  0.2741183187838938  0.6335806956717560  0.1346130548143443
  0.2701100493201806  0.8819859026641956  0.1231943818887029
  0.2777011268918867  0.1348624525412870  0.1276856741918387
  0.5348751347501367  0.3868831713317186  0.1290928509955785
  0.5200272562024153  0.6320005917781694  0.1413593470100991
  0.5200835678921865  0.8760599278395813  0.1302066944799533
  0.5255368367918871  0.1303445258529576  0.1181587018563883
  0.7646214758425692  0.3787789940286118  0.1254108443681911
  0.7758285523981084  0.6305305099334694  0.1359375445471918
  0.7653389605542313  0.8839651290968290  0.1384458437474768
  0.7764011763475769  0.1339354582570494  0.1297326468834794
  0.0206023568610913  0.3818373728981985  0.1349946874492326
  0.0234723131402371  0.6348681877331970  0.1280744156699258
  0.0214247959819313  0.8778694394095702  0.1369844152456401
  0.0275104150092359  0.1314283600792252  0.1420934286077959
  0.6412954411978259  0.0671487973302565  0.2556033211617466
  0.6445050286557085  0.3163461630746809  0.2432904305916122
  0.6377191373696802  0.8158287083107144  0.2632438310019944
  0.6415453793469235  0.5599396610993169  0.2555898517746329
  0.8921164064980892  0.5695853175341671  0.2538803620601188
  0.8890141120542017  0.8106635242496789  0.2559793415520041
  0.8890100692504289  0.3101053379186778  0.2570550217728901
  0.8879301103135726  0.0563688603892767  0.2585411441511020
  0.3899344042396125  0.0626739431036190  0.2443664849621402
  0.3971280095588424  0.3100678836041632  0.2491017228318907
  0.3927948015076353  0.8181707734152085  0.2620974364987615
  0.3930541681163334  0.5643791678166312  0.2636056337058542
  0.1394064118497211  0.5689825371599470  0.2619563820837097
  0.1431694257892863  0.8130711344045736  0.2551932531540628
  0.1456251127949491  0.3144488679550483  0.2606554637783113
  0.1417367175217400  0.0630539873512098  0.2524810423988619
  0.7252442459153086  0.2327656897879173  0.2476032535154913
  0.7286346269204319  0.4791600682698518  0.2490137976660096
  0.7269118081296002  0.9828410080735116  0.2569573687163158
  0.7236870827438752  0.7330862753112162  0.2569259401463838
  0.9765498961657804  0.7347038335193175  0.2538272328109481
  0.9706461908697447  0.9753852585904396  0.2545467225726051
  0.9688300317833982  0.4793403171584535  0.2568780489922017
  0.9787583870685114  0.2268713170411747  0.2572888652991697
  0.4781892277309251  0.2225254461101470  0.2402437300564210
  0.4746645813372221  0.4780973020954987  0.2563800558186368
  0.4747687224877987  0.9834742200782748  0.2536274369020948
  0.4687821034420395  0.7255720034617150  0.2656447492550120
  0.2189652017817075  0.7292495489681220  0.2594110420688620
  0.2227296603057942  0.9800857750620279  0.2519684573892571
  0.2230622740494931  0.4843217409889016  0.2587525386988587
  0.2274047644006449  0.2301895352177067  0.2529947498573929
Cartesian
 -0.0106954000000000  0.0029406200000000  0.0134484000000000
 -0.0028785500000000  0.0120454000000000  0.0159981000000000
  0.0000000000000000  0.0000000000000000  0.0000000000000000
  0.0000000000000000  0.0000000000000000  0.0000000000000000
  0.0000000000000000  0.0000000000000000  0.0000000000000000
  0.0000000000000000  0.0000000000000000  0.0000000000000000
  0.0000000000000000  0.0000000000000000  0.0000000000000000
  0.0000000000000000  0.0000000000000000  0.0000000000000000
  0.0000000000000000  0.0000000000000000  0.0000000000000000
  0.0000000000000000  0.0000000000000000  0.0000000000000000
  0.0000000000000000  0.0000000000000000  0.0000000000000000
  0.0000000000000000  0.0000000000000000  0.0000000000000000
  0.0000000000000000  0.0000000000000000  0.0000000000000000
  0.0000000000000000  0.0000000000000000  0.0000000000000000
  0.0000000000000000  0.0000000000000000  0.0000000000000000
  0.0000000000000000  0.0000000000000000  0.0000000000000000
  0.0000000000000000  0.0000000000000000  0.0000000000000000
  0.0000000000000000  0.0000000000000000  0.0000000000000000
  0.0000000000000000  0.0000000000000000  0.0000000000000000
  0.0000000000000000  0.0000000000000000  0.0000000000000000
  0.0000000000000000  0.0000000000000000  0.0000000000000000
  0.0000000000000000  0.0000000000000000  0.0000000000000000
  0.0000000000000000  0.0000000000000000  0.0000000000000000
  0.0000000000000000  0.0000000000000000  0.0000000000000000
  0.0000000000000000  0.0000000000000000  0.0000000000000000
  0.0000000000000000  0.0000000000000000  0.0000000000000000
  0.0000000000000000  0.0000000000000000  0.0000000000000000
  0.0000000000000000  0.0000000000000000  0.0000000000000000
  0.0000000000000000  0.0000000000000000  0.0000000000000000
  0.0000000000000000  0.0000000000000000  0.0000000000000000
  0.0000000000000000  0.0000000000000000  0.0000000000000000
  0.0000000000000000  0.0000000000000000  0.0000000000000000
  0.0000000000000000  0.0000000000000000  0.0000000000000000
  0.0000000000000000  0.0000000000000000  0.0000000000000000
 -0.0014854500000000  0.0004900420000000 -0.0065546600000000
  0.0015158000000000  0.0069336300000000 -0.0008277400000000
  0.0029224000000000 -0.0045867000000000  0.0036109500000000
 -0.0006424960000000  0.0055827000000000 -0.0034431000000000
 -0.0114236000000000  0.0039083100000000  0.0016483100000000
  0.0135106000000000 -0.0055197800000000 -0.0112578000000000
  0.0046832900000000  0.0056368900000000 -0.0064328200000000
 -0.0073479600000000 -0.0032972600000000  0.0018179400000000
 -0.0071206800000000 -0.0049732100000000  0.0121372000000000
 -0.0020963500000000 -0.0018599000000000  0.0021105000000000
  0.0011580900000000  0.0038267200000000  0.0027898500000000
  0.0115168000000000  0.0000270685000000 -0.0026001000000000
  0.0117436000000000 -0.0077627700000000  0.0050520600000000
  0.0104622000000000  0.0049021000000000 -0.0033333800000000
 -0.0028205600000000 -0.0073081500000000 -0.0067835700000000
 -0.0089102400000000  0.0021629300000000  0.0063661000000000
 -0.0118289000000000  0.0036413500000000 -0.0074664100000000
 -0.0082738400000000  0.0043406500000000  0.0051635300000000
 -0.0042484300000000 -0.0021277300000000 -0.0017994500000000
 -0.0005114360000000 -0.0012568000000000  0.0023697500000000
 -0.0072098200000000 -0.0014571100000000 -0.0033035000000000
 -0.0102060000000000  0.0000590383000000 -0.0023602700000000
 -0.0008665140000000 -0.0032106100000000  0.0005644200000000
 -0.0098168100000000 -0.0016882100000000 -0.0145868000000000
  0.0052855500000000  0.0047414600000000 -0.0092611700000000
  0.0015508400000000 -0.0062665200000000  0.0062483200000000
  0.0088758600000000 -0.0007804630000000  0.0038703900000000
 -0.0030465800000000  0.0033833300000000 -0.0016952000000000
 -0.0048142100000000 -0.0057271600000000 -0.0095820100000000
  0.0017928700000000 -0.0043342900000000  0.0020264500000000
 -0.0041400300000000  0.0053642900000000  0.0001840030000000
 -0.0040701200000000 -0.0184200000000000  0.0089384700000000
 -0.0006365480000000  0.0032502800000000  0.0212234000000000
  0.0033084000000000 -0.0006358610000000  0.0143343000000000
  0.0034812200000000 -0.0010544000000000 -0.0097349800000000
 -0.0010638200000000  0.0029206300000000 -0.0097721900000000
 -0.0083237100000000  0.0022109500000000  0.0103431000000000
  0.0074449100000000  0.0026377800000000 -0.0079296300000000
 -0.0000978493000000  0.0010878800000000  0.0054530800000000
 -0.0084673700000000  0.0039257500000000 -0.0080295200000000
  0.0036987300000000  0.0049558100000000  0.0132490000000000
  0.0035844200000000 -0.0067400600000000  0.0138422000000000
 -0.0048666000000000  0.0100428000000000 -0.0114737000000000
 -0.0020272400000000 -0.0008965620000000 -0.0100469000000000
  0.0014901800000000 -0.0060563500000000 -0.0003866220000000
 -0.0122073000000000  0.0119853000000000 -0.0004590820000000
 -0.0023385800000000 -0.0105702000000000  0.0036563500000000
  0.0137797000000000  0.0044646900000000 -0.0074421700000000
 -0.0024031500000000 -0.0045470600000000 -0.0031437100000000
 -0.0081264700000000 -0.0061149400000000  0.0024881800000000
 -0.0000798485000000 -0.0034444500000000  0.0005765630000000
 -0.0053365500000000  0.0034518500000000  0.0029194100000000
  0.0026907400000000 -0.0001560180000000 -0.0022068200000000
  0.0047524300000000  0.0000913914000000  0.0192720000000000
  0.0023853800000000  0.0029907400000000 -0.0066246800000000
 -0.0063967600000000  0.0014332900000000 -0.0084773300000000
  0.0037404300000000  0.0017221500000000  0.0029739100000000
 -0.0016800800000000  0.0048373900000000  0.0060459000000000
 -0.0037654300000000 -0.0015212700000000  0.0068264000000000
  0.0054074500000000  0.0027509900000000 -0.0011987700000000
 -0.0032540400000000 -0.0030075300000000  0.0113200000000000
  0.0050828000000000  0.0110545000000000  0.0103588000000000
  0.0022070100000000  0.0076748400000000  0.0061014900000000
 -0.0082816600000000  0.0012996000000000 -0.0031358100000000
