N  O  C 
 1.0000000000000000
     9.8654639999999993    0.0000000000000000    0.0000000000000000
    -4.9327329999999998    8.5437419999999999    0.0000000000000000
     0.0000000000000000    0.0000000000000000   26.7272740000000013
 N   O   C  
   1   1  96
Direct
  0.5583535011991052  0.7435688015860029  0.5018805883458223
  0.6289769498694204  0.7365145155366348  0.5345924915500174
  0.9996738951095920  0.0003257471960179  0.0003673101865907
  0.9996743064729685  0.2503259110586439  0.0003672716491775
  0.9996743140319351  0.5003252673126132  0.0003672611729876
  0.9996738931776165  0.7503257940139110  0.0003673083158425
  0.2496747054340223  0.0003257460255705  0.0003673083158425
  0.2496741037455550  0.2503259110586439  0.0003673180437332
  0.2496740160226370  0.5003252673126132  0.0003672720233272
  0.2496747040872707  0.7503257940139110  0.0003672615471372
  0.4996740990074530  0.0003257495369125  0.0003672611729876
  0.4996745092003820  0.2503259110586439  0.0003673086899921
  0.4996745167593484  0.5003252673126132  0.0003673202886310
  0.4996740959050300  0.7503257940139110  0.0003672720233272
  0.7496745044622801  0.0003257495369125  0.0003672716491775
  0.7496739010181415  0.2503259110586439  0.0003672664110826
  0.7496739085771078  0.5003252673126132  0.0003673086899921
  0.7496745013598571  0.7503257940139110  0.0003673180437332
  0.0830075800666932  0.1669924021582112  0.0003612972276933
  0.0830082377222149  0.4169929288595091  0.0003612515814370
  0.0830072316441136  0.6669922851134784  0.0003612691664702
  0.0830078244268629  0.9169928118147763  0.0003613047106862
  0.3330080503942927  0.1669924021582112  0.0003613129419783
  0.3330076295399743  0.4169929288595091  0.0003612968535437
  0.3330075215443150  0.6669922851134784  0.0003612568195320
  0.3330082298816900  0.9169928118147763  0.0003612691664702
  0.5830074422120520  0.1669924021582112  0.0003612687923205
  0.5830080349948014  0.4169929288595091  0.0003613159351754
  0.5830070289167002  0.6669922851134784  0.0003612968535437
  0.5830076216994495  0.9169928118147763  0.0003612515814370
  0.8330078476668792  0.1669924021582112  0.0003612523297363
  0.8330074268125608  0.4169929288595091  0.0003612687923205
  0.8330074343715272  0.6669922851134784  0.0003613129419783
  0.8330080271542766  0.9169928118147763  0.0003612972276933
  0.0456364714183818  0.3147555251551369  0.1268722728700278
  0.0421390741481456  0.5654758769635131  0.1266518987308620
  0.0448090827222367  0.8181169328380936  0.1258014565944885
  0.0406133999701691  0.0646102141192934  0.1281967626028752
  0.2911431877137796  0.3102200417568789  0.1286240414940933
  0.2953627551552995  0.5705158231603904  0.1270155721829319
  0.2864836197928124  0.8102960037885039  0.1255784634078283
  0.2911627262421091  0.0644724524687192  0.1273530551600586
  0.5452860003675842  0.3116526692870641  0.1242666947628105
  0.5404661484614031  0.5665620520844380  0.1258448579529660
  0.5402721458698175  0.8182047163877374  0.1187723072693459
  0.5389863025844114  0.0574022483356824  0.1263473409222355
  0.8006966121819298  0.3170156589466302  0.1206434296292244
  0.7880372847669103  0.5646390071235766  0.1233863206550732
  0.7870282262023128  0.8097131210188697  0.1232815587552999
  0.7942919010755670  0.0675990684175622  0.1170957427233320
  0.2145490078436575  0.4022768945972385  0.1276074769166508
  0.2092522410406110  0.6526180214711540  0.1282742115787791
  0.2122297836940416  0.8991821148157330  0.1260319327739896
  0.2139985962692800  0.1474974314533374  0.1274780211405024
  0.4577758598803087  0.3973844247637628  0.1289001639299242
  0.4578512014392810  0.6501577411864731  0.1234136335789426
  0.4478042321902309  0.8908754501247814  0.1230884975400035
  0.4535395589587383  0.1438245677362448  0.1248092117437790
  0.7118340243143558  0.3982646011548570  0.1222111166294026
  0.6982769255178845  0.6418826785733932  0.1247512185492617
  0.7114255735876108  0.8978173732306055  0.1200410487055283
  0.7131588750521186  0.1487802417254641  0.1182623413072354
  0.9630504958114879  0.3960887395710217  0.1203968650151153
  0.9674596816007590  0.6528649858574850  0.1243127151687823
  0.9526183422936946  0.8998504402403537  0.1253453681808328
  0.9609955171132742  0.1482558813222590  0.1224677832838471
  0.2553808907311499  0.2608880277517743  0.2560957020906808
  0.2613195551042252  0.5121549784625987  0.2511498179724577
  0.2608242956304839  0.0074284780603160  0.2492438996958687
  0.2576554355171004  0.7613244875606028  0.2470858045605399
  0.5095528518865020  0.7642447536454168  0.2498720969448661
  0.5058211007931733  0.0173960075105264  0.2540621987861538
  0.5081034824150029  0.5096701187840176  0.2490381173927427
  0.5116803163403755  0.2592201403085440  0.2496528452546264
  0.0138842179741501  0.2654703290431757  0.2575792054213984
  0.0109986884750315  0.5109798493447016  0.2548112463695325
  0.0019010232976570  0.0114391913988039  0.2518487295038020
  0.0081387580214988  0.7622432887135403  0.2512201581051626
  0.7575092304828626  0.7630111021610906  0.2514693417667661
  0.7564041303636103  0.0131747892199928  0.2530407702633647
  0.7615542317806059  0.5091469288281411  0.2535353960901512
  0.7566026777776956  0.2567048489994197  0.2504669948757213
  0.3432276533250900  0.4280243949314013  0.2502398860429986
  0.3412593277507133  0.6781173869716571  0.2465754644487874
  0.3410763588023169  0.1743428113817107  0.2507951241117968
  0.3445419797247540  0.9276392007155647  0.2513398859906177
  0.5898353409253160  0.9320997754847934  0.2542821987756776
  0.5954478362561296  0.1785458877386513  0.2576061441956258
  0.5975448325447128  0.6791766418040246  0.2466529134246912
  0.5937450093730108  0.4259058852666666  0.2494504302982788
  0.0972639894343264  0.4331076476794360  0.2555045456562461
  0.0889600976525420  0.6777627414310966  0.2517424710054606
  0.0931510016125781  0.1803764673605547  0.2549638994234878
  0.0907717978365172  0.9242109604901458  0.2551457361495228
  0.8383260752441282  0.9258449049608475  0.2570969265327994
  0.8414182503145434  0.1785341832653655  0.2612627086473540
  0.8415055686390102  0.6751982913341719  0.2510009064149228
  0.8351118369488417  0.4218971031662707  0.2505433214026990
Cartesian
 -0.0047072900000000  0.0003877920000000 -0.0396490000000000
  0.0041211000000000 -0.0003395000000000 -0.0290979000000000
  0.0000000000000000  0.0000000000000000  0.0000000000000000
  0.0000000000000000  0.0000000000000000  0.0000000000000000
  0.0000000000000000  0.0000000000000000  0.0000000000000000
  0.0000000000000000  0.0000000000000000  0.0000000000000000
  0.0000000000000000  0.0000000000000000  0.0000000000000000
  0.0000000000000000  0.0000000000000000  0.0000000000000000
  0.0000000000000000  0.0000000000000000  0.0000000000000000
  0.0000000000000000  0.0000000000000000  0.0000000000000000
  0.0000000000000000  0.0000000000000000  0.0000000000000000
  0.0000000000000000  0.0000000000000000  0.0000000000000000
  0.0000000000000000  0.0000000000000000  0.0000000000000000
  0.0000000000000000  0.0000000000000000  0.0000000000000000
  0.0000000000000000  0.0000000000000000  0.0000000000000000
  0.0000000000000000  0.0000000000000000  0.0000000000000000
  0.0000000000000000  0.0000000000000000  0.0000000000000000
  0.0000000000000000  0.0000000000000000  0.0000000000000000
  0.0000000000000000  0.0000000000000000  0.0000000000000000
  0.0000000000000000  0.0000000000000000  0.0000000000000000
  0.0000000000000000  0.0000000000000000  0.0000000000000000
  0.0000000000000000  0.0000000000000000  0.0000000000000000
  0.0000000000000000  0.0000000000000000  0.0000000000000000
  0.0000000000000000  0.0000000000000000  0.0000000000000000
  0.0000000000000000  0.0000000000000000  0.0000000000000000
  0.0000000000000000  0.0000000000000000  0.0000000000000000
  0.0000000000000000  0.0000000000000000  0.0000000000000000
  0.0000000000000000  0.0000000000000000  0.0000000000000000
  0.0000000000000000  0.0000000000000000  0.0000000000000000
  0.0000000000000000  0.0000000000000000  0.0000000000000000
  0.0000000000000000  0.0000000000000000  0.0000000000000000
  0.0000000000000000  0.0000000000000000  0.0000000000000000
  0.0000000000000000  0.0000000000000000  0.0000000000000000
  0.0000000000000000  0.0000000000000000  0.0000000000000000
  0.0000000000000000  0.0000000000000000  0.0000000000000000
 -0.0083809300000000 -0.0016603200000000 -0.0028960200000000
 -0.0005084630000000  0.0065675100000000 -0.0070624800000000
 -0.0115729000000000 -0.0014294800000000  0.0001342720000000
  0.0075339200000000  0.0043116500000000 -0.0087339000000000
  0.0041171400000000  0.0059461700000000  0.0028071800000000
  0.0067362900000000 -0.0064051700000000 -0.0082818000000000
  0.0001998290000000 -0.0043655700000000  0.0103597000000000
 -0.0017801100000000  0.0076184400000000  0.0081148600000000
  0.0022294900000000 -0.0001123830000000 -0.0118349000000000
 -0.0000683320000000 -0.0048711900000000  0.0029038000000000
  0.0072562300000000 -0.0085751100000000  0.0085878500000000
  0.0017713800000000  0.0014051900000000 -0.0068283500000000
  0.0101274000000000 -0.0018511000000000  0.0084592200000000
 -0.0035173200000000  0.0001296010000000 -0.0054809700000000
  0.0020155600000000 -0.0097512700000000 -0.0059991900000000
 -0.0063476400000000  0.0102904000000000  0.0042659000000000
  0.0050502900000000  0.0032472100000000  0.0043153200000000
 -0.0039538500000000 -0.0036412600000000  0.0020251200000000
  0.0043062300000000  0.0015847800000000 -0.0027805300000000
 -0.0060597700000000 -0.0048803700000000  0.0013294600000000
  0.0076212200000000  0.0007700720000000 -0.0016874500000000
  0.0036584200000000  0.0002553910000000 -0.0073786900000000
 -0.0009386070000000  0.0037257400000000 -0.0104710000000000
 -0.0030268900000000 -0.0024850700000000 -0.0020268500000000
 -0.0023801700000000 -0.0112883000000000 -0.0044373800000000
  0.0008667400000000 -0.0181780000000000 -0.0065835600000000
  0.0028264100000000 -0.0054950400000000  0.0108909000000000
  0.0020047100000000 -0.0018399300000000  0.0050335500000000
 -0.0060511100000000 -0.0035553200000000  0.0027922300000000
 -0.0024115800000000 -0.0101614000000000  0.0084815600000000
 -0.0154198000000000  0.0000749044000000 -0.0038751400000000
 -0.0007431530000000 -0.0039879200000000 -0.0011634200000000
 -0.0063126500000000 -0.0001682470000000  0.0112781000000000
  0.0100988000000000 -0.0013009800000000 -0.0039690400000000
  0.0029839700000000 -0.0044373400000000 -0.0053394800000000
 -0.0046000100000000  0.0065330300000000 -0.0058146900000000
 -0.0023762700000000  0.0007432250000000  0.0036034700000000
  0.0069823900000000 -0.0072935600000000 -0.0130737000000000
  0.0020029900000000 -0.0026346200000000 -0.0056146400000000
  0.0051321300000000  0.0021902200000000  0.0105877000000000
 -0.0069811400000000  0.0017926400000000  0.0039134300000000
 -0.0007783480000000  0.0036983400000000  0.0044828300000000
  0.0064316700000000  0.0087182300000000 -0.0006691270000000
 -0.0073364800000000 -0.0002986540000000  0.0054532800000000
 -0.0110881000000000  0.0124492000000000  0.0108645000000000
  0.0019461400000000 -0.0059418700000000 -0.0116735000000000
 -0.0034770900000000  0.0063010300000000  0.0092611400000000
 -0.0090231900000000  0.0010563000000000 -0.0032557700000000
 -0.0045486800000000  0.0067594700000000 -0.0080510600000000
 -0.0040658300000000 -0.0111594000000000  0.0016364600000000
  0.0020454300000000  0.0069945000000000  0.0004308560000000
 -0.0136201000000000  0.0101502000000000 -0.0052799900000000
  0.0012838300000000 -0.0087875200000000 -0.0041032900000000
  0.0001661730000000  0.0035580100000000  0.0023858700000000
 -0.0121374000000000 -0.0035880500000000  0.0044247800000000
 -0.0066806200000000 -0.0052626300000000  0.0069605000000000
 -0.0102423000000000  0.0075636400000000 -0.0041630700000000
 -0.0049833600000000  0.0026070500000000  0.0027292300000000
  0.0022347900000000 -0.0037539800000000 -0.0017026700000000
 -0.0021557800000000  0.0041906900000000 -0.0042064700000000
 -0.0006356270000000  0.0033996800000000 -0.0044758800000000
  0.0040971200000000 -0.0022558700000000 -0.0048591500000000
  0.0058551500000000 -0.0052543100000000 -0.0026592600000000
