N  O  C 
 1.0000000000000000
     9.8654639999999993    0.0000000000000000    0.0000000000000000
    -4.9327329999999998    8.5437419999999999    0.0000000000000000
     0.0000000000000000    0.0000000000000000   26.7272740000000013
 N   O   C  
   1   1  96
Direct
  0.2974135067260332  0.1337680842890621  0.4788928343384365
  0.2572958091980664  0.0242933365731315  0.5036877311169108
  0.9996738951095920  0.0003257471960179  0.0003673101865907
  0.9996743064729685  0.2503259110586439  0.0003672716491775
  0.9996743140319351  0.5003252673126132  0.0003672611729876
  0.9996738931776165  0.7503257940139110  0.0003673083158425
  0.2496747054340223  0.0003257460255705  0.0003673083158425
  0.2496741037455550  0.2503259110586439  0.0003673180437332
  0.2496740160226370  0.5003252673126132  0.0003672720233272
  0.2496747040872707  0.7503257940139110  0.0003672615471372
  0.4996740990074530  0.0003257495369125  0.0003672611729876
  0.4996745092003820  0.2503259110586439  0.0003673086899921
  0.4996745167593484  0.5003252673126132  0.0003673202886310
  0.4996740959050300  0.7503257940139110  0.0003672720233272
  0.7496745044622801  0.0003257495369125  0.0003672716491775
  0.7496739010181415  0.2503259110586439  0.0003672664110826
  0.7496739085771078  0.5003252673126132  0.0003673086899921
  0.7496745013598571  0.7503257940139110  0.0003673180437332
  0.0830075800666932  0.1669924021582112  0.0003612972276933
  0.0830082377222149  0.4169929288595091  0.0003612515814370
  0.0830072316441136  0.6669922851134784  0.0003612691664702
  0.0830078244268629  0.9169928118147763  0.0003613047106862
  0.3330080503942927  0.1669924021582112  0.0003613129419783
  0.3330076295399743  0.4169929288595091  0.0003612968535437
  0.3330075215443150  0.6669922851134784  0.0003612568195320
  0.3330082298816900  0.9169928118147763  0.0003612691664702
  0.5830074422120520  0.1669924021582112  0.0003612687923205
  0.5830080349948014  0.4169929288595091  0.0003613159351754
  0.5830070289167002  0.6669922851134784  0.0003612968535437
  0.5830076216994495  0.9169928118147763  0.0003612515814370
  0.8330078476668792  0.1669924021582112  0.0003612523297363
  0.8330074268125608  0.4169929288595091  0.0003612687923205
  0.8330074343715272  0.6669922851134784  0.0003613129419783
  0.8330080271542766  0.9169928118147763  0.0003612972276933
  0.0402305443042995  0.3221141275099366  0.1198921371479935
  0.0486056366635827  0.5794510180667909  0.1152399604987774
  0.0381119721898530  0.8212490498893811  0.1103906069882024
  0.0508254432999557  0.0769647538514155  0.1165161849278007
  0.2955166221386065  0.3277591949756910  0.1163339740521237
  0.2888077211191818  0.5722586192326501  0.1190188718834551
  0.2876906361882057  0.8206427581731752  0.1130586680856417
  0.2912992896801975  0.0674621260801180  0.1078804370397071
  0.5410325049103869  0.3240793085746269  0.1141654027268176
  0.5399223117002757  0.5785158306512532  0.1188048582882040
  0.5407257002848869  0.8275554200957848  0.1203493480105753
  0.5457258945765253  0.0750393679958969  0.1156489060575351
  0.7937786903086772  0.3238499008982247  0.1161293141979238
  0.7916949303000661  0.5800573097829967  0.1161723414067592
  0.7913272380145082  0.8265195742099890  0.1236302662216880
  0.7886912186464426  0.0732707050376755  0.1195572732183611
  0.2149282964961010  0.4067889690489249  0.1182672052525821
  0.2074938614244864  0.6529551103017859  0.1144968993096715
  0.2051841262782882  0.9002811648572722  0.1080708792075092
  0.2134478840691398  0.1629953245311012  0.1107307090128234
  0.4592208037131360  0.4118277447984736  0.1172061168677359
  0.4535402527166219  0.6594569452120628  0.1226241778342228
  0.4549786462126047  0.9069761235767653  0.1157742461876209
  0.4587849414138992  0.1512136017215876  0.1110693144388762
  0.7055756847117459  0.4085142084112559  0.1122594844502286
  0.7052797418914463  0.6561761813500455  0.1227989057170589
  0.7033396532766154  0.9087177492016963  0.1202408446143815
  0.7039412601420978  0.1598702301637854  0.1181418651224962
  0.9607487312081474  0.4116018484640571  0.1160264230463608
  0.9545785623341164  0.6576720130359741  0.1121461171086883
  0.9578899082086190  0.9070931683096236  0.1189017630454943
  0.9601342465429925  0.1532314529160642  0.1161633618153501
  0.2766979879387827  0.2658331677150363  0.2285661455784829
  0.2791033900858222  0.5118155487373097  0.2470244440192442
  0.2799632451212646  0.0153296997966465  0.2314964855749973
  0.2774487689470114  0.7656528017817018  0.2431261788987534
  0.5277565750049682  0.7655357570488435  0.2485524711573653
  0.5235518306700496  0.0134857770751973  0.2420149544618729
  0.5250516877621693  0.5153549814589439  0.2508650900948596
  0.5265830718542781  0.2620385774757711  0.2409295463502937
  0.0218335934983407  0.2625336766957617  0.2340627779697997
  0.0240022156470118  0.5096268122328600  0.2469780494636303
  0.0245905819411509  0.0132523898778779  0.2275679143335007
  0.0286181513883002  0.7616814739958205  0.2438767230807003
  0.7816591781984218  0.7670292478401151  0.2475359065799228
  0.7689174998907491  0.0176003676140970  0.2390528117457845
  0.7757529388343944  0.5096490507321031  0.2475445120216899
  0.7782793536350262  0.2619941004772850  0.2448876754135121
  0.3638236573645151  0.4317908944347805  0.2361303288917530
  0.3626492026086396  0.6849715265278375  0.2457066889799536
  0.3573469100761258  0.1807685672156299  0.2317292066523507
  0.3548706762953006  0.9321898999290943  0.2436900224093186
  0.6075785353891345  0.9313202575639573  0.2487343078834003
  0.6115542875256036  0.1808423053973306  0.2445524373342377
  0.6142548344875726  0.6841276340039295  0.2536012464271515
  0.6133885983149078  0.4271816728548217  0.2458088318322325
  0.1089558620622542  0.4263600188301566  0.2437139679864097
  0.1115823786789156  0.6786241906649335  0.2456625393221920
  0.1083608313444712  0.1770488856053940  0.2318567916802889
  0.1119831016563807  0.9291958956625798  0.2315099549621110
  0.8528261183769550  0.9292263272931228  0.2386158049638732
  0.8562436523675185  0.1769142841626070  0.2414776755758930
  0.8624946658942586  0.6793779587445408  0.2501942397866689
  0.8581931716547683  0.4251626512130166  0.2488719949516737
Cartesian
 -0.0006414190000000 -0.0060249900000000  0.0249841000000000
 -0.0006702980000000  0.0036021600000000  0.0147149000000000
  0.0000000000000000  0.0000000000000000  0.0000000000000000
  0.0000000000000000  0.0000000000000000  0.0000000000000000
  0.0000000000000000  0.0000000000000000  0.0000000000000000
  0.0000000000000000  0.0000000000000000  0.0000000000000000
  0.0000000000000000  0.0000000000000000  0.0000000000000000
  0.0000000000000000  0.0000000000000000  0.0000000000000000
  0.0000000000000000  0.0000000000000000  0.0000000000000000
  0.0000000000000000  0.0000000000000000  0.0000000000000000
  0.0000000000000000  0.0000000000000000  0.0000000000000000
  0.0000000000000000  0.0000000000000000  0.0000000000000000
  0.0000000000000000  0.0000000000000000  0.0000000000000000
  0.0000000000000000  0.0000000000000000  0.0000000000000000
  0.0000000000000000  0.0000000000000000  0.0000000000000000
  0.0000000000000000  0.0000000000000000  0.0000000000000000
  0.0000000000000000  0.0000000000000000  0.0000000000000000
  0.0000000000000000  0.0000000000000000  0.0000000000000000
  0.0000000000000000  0.0000000000000000  0.0000000000000000
  0.0000000000000000  0.0000000000000000  0.0000000000000000
  0.0000000000000000  0.0000000000000000  0.0000000000000000
  0.0000000000000000  0.0000000000000000  0.0000000000000000
  0.0000000000000000  0.0000000000000000  0.0000000000000000
  0.0000000000000000  0.0000000000000000  0.0000000000000000
  0.0000000000000000  0.0000000000000000  0.0000000000000000
  0.0000000000000000  0.0000000000000000  0.0000000000000000
  0.0000000000000000  0.0000000000000000  0.0000000000000000
  0.0000000000000000  0.0000000000000000  0.0000000000000000
  0.0000000000000000  0.0000000000000000  0.0000000000000000
  0.0000000000000000  0.0000000000000000  0.0000000000000000
  0.0000000000000000  0.0000000000000000  0.0000000000000000
  0.0000000000000000  0.0000000000000000  0.0000000000000000
  0.0000000000000000  0.0000000000000000  0.0000000000000000
  0.0000000000000000  0.0000000000000000  0.0000000000000000
  0.0076979700000000  0.0020663700000000 -0.0105354000000000
  0.0011360100000000 -0.0016085700000000  0.0017177600000000
 -0.0053190900000000 -0.0086748000000000  0.0050110300000000
 -0.0004089110000000 -0.0078685500000000  0.0023896500000000
 -0.0064692700000000  0.0028003400000000  0.0077993200000000
  0.0034944300000000  0.0061069800000000  0.0022815800000000
  0.0012872400000000  0.0004639800000000  0.0042631700000000
  0.0005302800000000  0.0071404900000000 -0.0008983220000000
 -0.0047074200000000 -0.0067977000000000  0.0050846000000000
  0.0023707100000000 -0.0017605100000000  0.0134586000000000
  0.0022583300000000 -0.0073007800000000 -0.0000317695000000
  0.0024857600000000  0.0025068000000000  0.0053126300000000
  0.0080460100000000 -0.0004037170000000  0.0099147700000000
 -0.0096018900000000 -0.0027509000000000 -0.0062477400000000
  0.0033953900000000 -0.0083809200000000  0.0010473100000000
 -0.0101627000000000 -0.0105789000000000  0.0014903200000000
  0.0089530000000000  0.0071421100000000  0.0104075000000000
 -0.0037797700000000  0.0019074400000000  0.0023853300000000
 -0.0021076500000000 -0.0115573000000000 -0.0077886800000000
  0.0047363600000000  0.0063276100000000 -0.0004906040000000
  0.0040720300000000 -0.0005238400000000 -0.0130193000000000
  0.0009441950000000 -0.0023211000000000  0.0103887000000000
  0.0025857200000000 -0.0017832100000000 -0.0044596000000000
  0.0100443000000000 -0.0025930500000000  0.0030016200000000
  0.0035676100000000  0.0046665900000000 -0.0029614100000000
  0.0055605400000000 -0.0003673830000000  0.0044485800000000
 -0.0025950900000000 -0.0083610700000000 -0.0002721860000000
  0.0026809900000000  0.0058186200000000 -0.0084011800000000
 -0.0068375600000000 -0.0067880500000000  0.0058030900000000
 -0.0000125407000000 -0.0038589500000000  0.0074883900000000
 -0.0192339000000000  0.0015475000000000  0.0018459500000000
 -0.0083347100000000 -0.0110625000000000  0.0033046400000000
 -0.0000491276000000  0.0076068000000000 -0.0129734000000000
 -0.0044006200000000  0.0057307100000000 -0.0011779500000000
  0.0085245000000000 -0.0046302200000000  0.0004404040000000
 -0.0115618000000000  0.0010818600000000  0.0078219700000000
  0.0055668200000000  0.0030678400000000 -0.0028391200000000
 -0.0029862600000000  0.0087060900000000 -0.0007997720000000
  0.0002133320000000 -0.0023692400000000 -0.0031014100000000
 -0.0009335780000000 -0.0084987100000000 -0.0006012570000000
  0.0036361500000000  0.0010233900000000  0.0049295800000000
 -0.0042822300000000  0.0016067700000000 -0.0039489100000000
  0.0001631310000000 -0.0038948200000000  0.0094545100000000
  0.0049310700000000 -0.0021186500000000  0.0002226930000000
 -0.0041120700000000 -0.0025660700000000  0.0019467900000000
 -0.0004934440000000  0.0055605300000000  0.0059801800000000
  0.0040232700000000 -0.0081066000000000 -0.0071977200000000
 -0.0077248300000000  0.0013311800000000  0.0055023600000000
  0.0006743180000000 -0.0062178600000000  0.0027000400000000
 -0.0107093000000000  0.0061608000000000  0.0047645700000000
 -0.0132619000000000 -0.0092899200000000  0.0046517000000000
 -0.0012597300000000 -0.0073419100000000  0.0021678500000000
 -0.0022221500000000  0.0026588300000000 -0.0035694100000000
  0.0000901788000000  0.0065704100000000  0.0021212600000000
 -0.0106399000000000  0.0023687200000000 -0.0029371800000000
  0.0062172700000000 -0.0155821000000000  0.0007040870000000
 -0.0076543800000000  0.0043633700000000 -0.0035726000000000
  0.0085474200000000  0.0020412900000000 -0.0032213900000000
  0.0062830200000000 -0.0043815800000000 -0.0036862700000000
  0.0021418700000000  0.0109893000000000  0.0004424790000000
 -0.0155152000000000  0.0137069000000000 -0.0043038400000000
 -0.0037896600000000 -0.0005759340000000 -0.0095345400000000
 -0.0050197400000000  0.0060305800000000  0.0136467000000000
  0.0033415600000000  0.0046968200000000 -0.0045558500000000
