N  O  C 
 1.0000000000000000
     9.8654639999999993    0.0000000000000000    0.0000000000000000
    -4.9327329999999998    8.5437419999999999    0.0000000000000000
     0.0000000000000000    0.0000000000000000   26.7272740000000013
 N   O   C  
   1   1  96
Direct
  0.3125146587730280  0.1328902487926251  0.4011445387210084
  0.2662812907805972  0.0446726972794825  0.4341220881710570
  0.9996738951095920  0.0003257471960179  0.0003673101865907
  0.9996743064729685  0.2503259110586439  0.0003672716491775
  0.9996743140319351  0.5003252673126132  0.0003672611729876
  0.9996738931776165  0.7503257940139110  0.0003673083158425
  0.2496747054340223  0.0003257460255705  0.0003673083158425
  0.2496741037455550  0.2503259110586439  0.0003673180437332
  0.2496740160226370  0.5003252673126132  0.0003672720233272
  0.2496747040872707  0.7503257940139110  0.0003672615471372
  0.4996740990074530  0.0003257495369125  0.0003672611729876
  0.4996745092003820  0.2503259110586439  0.0003673086899921
  0.4996745167593484  0.5003252673126132  0.0003673202886310
  0.4996740959050300  0.7503257940139110  0.0003672720233272
  0.7496745044622801  0.0003257495369125  0.0003672716491775
  0.7496739010181415  0.2503259110586439  0.0003672664110826
  0.7496739085771078  0.5003252673126132  0.0003673086899921
  0.7496745013598571  0.7503257940139110  0.0003673180437332
  0.0830075800666932  0.1669924021582112  0.0003612972276933
  0.0830082377222149  0.4169929288595091  0.0003612515814370
  0.0830072316441136  0.6669922851134784  0.0003612691664702
  0.0830078244268629  0.9169928118147763  0.0003613047106862
  0.3330080503942927  0.1669924021582112  0.0003613129419783
  0.3330076295399743  0.4169929288595091  0.0003612968535437
  0.3330075215443150  0.6669922851134784  0.0003612568195320
  0.3330082298816900  0.9169928118147763  0.0003612691664702
  0.5830074422120520  0.1669924021582112  0.0003612687923205
  0.5830080349948014  0.4169929288595091  0.0003613159351754
  0.5830070289167002  0.6669922851134784  0.0003612968535437
  0.5830076216994495  0.9169928118147763  0.0003612515814370
  0.8330078476668792  0.1669924021582112  0.0003612523297363
  0.8330074268125608  0.4169929288595091  0.0003612687923205
  0.8330074343715272  0.6669922851134784  0.0003613129419783
  0.8330080271542766  0.9169928118147763  0.0003612972276933
  0.0443304453528492  0.3342610298859680  0.1226346540242002
  0.0528208571616050  0.5874861389775112  0.1236946199601201
  0.0508845047446671  0.8363232410341980  0.1238315587291095
  0.0548037179277978  0.0959375880030085  0.1216566268598885
  0.2937341564714098  0.3324351320533790  0.1247512185492617
  0.2947639048838727  0.5874451733210109  0.1201686337334664
  0.2977331278593106  0.8399188552276040  0.1281933952560968
  0.2930098046738477  0.0837968889978185  0.1248339056201541
  0.5456543077498681  0.3371625688135246  0.1258283953687159
  0.5522255286735556  0.5817872309346420  0.1188224433213803
  0.5440484887452719  0.8327393313140776  0.1190042800474152
  0.5504857453824259  0.0928587263051717  0.1198423752456012
  0.7948271946246673  0.3377922694763021  0.1194936677792131
  0.7984321448096129  0.5870039146781352  0.1234319669114029
  0.8063762001502536  0.8427408037368170  0.1203381235213138
  0.7994664904123160  0.0898037417328379  0.1185167630638276
  0.2113943585218817  0.4184969536767379  0.1229957084287758
  0.2138665220708545  0.6763476706108400  0.1212035316433693
  0.2201724728331055  0.9252667039805276  0.1292672047287726
  0.2107933093023779  0.1702228367850996  0.1230664227111227
  0.4627372812814962  0.4213481633691654  0.1225444839604668
  0.4668183368576966  0.6642604610485664  0.1191064228996942
  0.4692899131314220  0.9282291061691704  0.1220356404472824
  0.4632980346761075  0.1678339537874622  0.1281170687291192
  0.7144726812587436  0.4175524026825717  0.1229062866643265
  0.7263092389232142  0.6768170199896018  0.1205248241926954
  0.7220571434019417  0.9244649475604484  0.1175690420205218
  0.7193358872557203  0.1750778523040607  0.1204836677320703
  0.9651187773927653  0.4208284847552747  0.1199340419079028
  0.9653538162165144  0.6689949204926835  0.1251201300963203
  0.9737869401931253  0.9233319545463803  0.1203991099129676
  0.9645302235547898  0.1716367371580275  0.1224180213814548
  0.2930676058723520  0.2621544517613009  0.2570654979628674
  0.2911398066232735  0.5043750150695093  0.2422345803017547
  0.2893112462019164  0.0066291210572604  0.2580581169632190
  0.2932709431864466  0.7591462850821104  0.2404682198416494
  0.5389188422687299  0.7507307687896005  0.2345375738655577
  0.5411768147039303  0.0038498704665941  0.2456427093911635
  0.5397304815634328  0.5079905268675013  0.2402736620277848
  0.5455139041138730  0.2651730354217157  0.2456666549682545
  0.0400053317235404  0.2512236441596668  0.2500049200677929
  0.0385040400333647  0.5104472958101965  0.2408517232247479
  0.0393206504936033  0.0065366323093558  0.2572230149621694
  0.0349474113279731  0.7552369910046440  0.2469466208936983
  0.7898800036447385  0.7556384544383480  0.2392458729610809
  0.7909303200760776  0.0032770067260926  0.2477259745980828
  0.7909138473351827  0.5140136488203881  0.2346075398486205
  0.7941413741296309  0.2635847383968289  0.2437921652615976
  0.3731590407731154  0.4312126934544606  0.2460924372609044
  0.3709547577427247  0.6709612720047025  0.2362695125585947
  0.3712888334456409  0.1769985563702649  0.2582122666157424
  0.3754278113611904  0.9245796513986495  0.2477753623508331
  0.6283196702763602  0.9234607037525243  0.2410706007653455
  0.6237081997655105  0.1728738999843394  0.2379056689432675
  0.6250582638029872  0.6724547627959739  0.2367719955278642
  0.6237603060376684  0.4297566569777037  0.2386176757120835
  0.1230998505386630  0.4202104885657830  0.2457624372766186
  0.1242734786363279  0.6785539638252185  0.2402130497857731
  0.1277997786585252  0.1782930711156774  0.2602431508727751
  0.1239862245183507  0.9248324680216233  0.2516133893789543
  0.8754110621477362  0.9187414601236789  0.2446549543361587
  0.8768112364969537  0.1757321323607384  0.2449527774512283
  0.8718496146592369  0.6793112432468116  0.2402235259757504
  0.8696627371402753  0.4259761121063815  0.2395470634229290
Cartesian
 -0.0013771700000000  0.0054578800000000  0.0156524000000000
  0.0000350052000000 -0.0064720100000000  0.0241355000000000
  0.0000000000000000  0.0000000000000000  0.0000000000000000
  0.0000000000000000  0.0000000000000000  0.0000000000000000
  0.0000000000000000  0.0000000000000000  0.0000000000000000
  0.0000000000000000  0.0000000000000000  0.0000000000000000
  0.0000000000000000  0.0000000000000000  0.0000000000000000
  0.0000000000000000  0.0000000000000000  0.0000000000000000
  0.0000000000000000  0.0000000000000000  0.0000000000000000
  0.0000000000000000  0.0000000000000000  0.0000000000000000
  0.0000000000000000  0.0000000000000000  0.0000000000000000
  0.0000000000000000  0.0000000000000000  0.0000000000000000
  0.0000000000000000  0.0000000000000000  0.0000000000000000
  0.0000000000000000  0.0000000000000000  0.0000000000000000
  0.0000000000000000  0.0000000000000000  0.0000000000000000
  0.0000000000000000  0.0000000000000000  0.0000000000000000
  0.0000000000000000  0.0000000000000000  0.0000000000000000
  0.0000000000000000  0.0000000000000000  0.0000000000000000
  0.0000000000000000  0.0000000000000000  0.0000000000000000
  0.0000000000000000  0.0000000000000000  0.0000000000000000
  0.0000000000000000  0.0000000000000000  0.0000000000000000
  0.0000000000000000  0.0000000000000000  0.0000000000000000
  0.0000000000000000  0.0000000000000000  0.0000000000000000
  0.0000000000000000  0.0000000000000000  0.0000000000000000
  0.0000000000000000  0.0000000000000000  0.0000000000000000
  0.0000000000000000  0.0000000000000000  0.0000000000000000
  0.0000000000000000  0.0000000000000000  0.0000000000000000
  0.0000000000000000  0.0000000000000000  0.0000000000000000
  0.0000000000000000  0.0000000000000000  0.0000000000000000
  0.0000000000000000  0.0000000000000000  0.0000000000000000
  0.0000000000000000  0.0000000000000000  0.0000000000000000
  0.0000000000000000  0.0000000000000000  0.0000000000000000
  0.0000000000000000  0.0000000000000000  0.0000000000000000
  0.0000000000000000  0.0000000000000000  0.0000000000000000
 -0.0050187900000000  0.0000902654000000 -0.0069871300000000
  0.0006309690000000  0.0053064300000000  0.0005857730000000
  0.0057379200000000 -0.0063169200000000  0.0053488500000000
  0.0115681000000000 -0.0029739200000000 -0.0001392560000000
  0.0063853700000000 -0.0025788900000000 -0.0041169800000000
 -0.0014894300000000 -0.0107537000000000 -0.0064920200000000
 -0.0054670900000000 -0.0029977000000000  0.0011657500000000
  0.0017435500000000  0.0019394500000000 -0.0096726800000000
 -0.0043824000000000  0.0004027590000000 -0.0071148600000000
 -0.0012497900000000 -0.0051666000000000 -0.0070046900000000
 -0.0030836900000000 -0.0013322800000000 -0.0172788000000000
 -0.0056542900000000 -0.0034773600000000 -0.0020428000000000
  0.0006586560000000 -0.0096707500000000  0.0056290000000000
 -0.0093129000000000  0.0055434800000000 -0.0147198000000000
 -0.0001054490000000  0.0060432700000000 -0.0057435100000000
 -0.0038379200000000  0.0070314500000000 -0.0037153300000000
  0.0085863000000000 -0.0042386600000000 -0.0016428700000000
  0.0034926500000000  0.0024563600000000 -0.0068328000000000
  0.0046592700000000 -0.0064855300000000 -0.0013628700000000
 -0.0068112500000000  0.0045726100000000 -0.0010593200000000
 -0.0092762000000000 -0.0077900000000000 -0.0087415300000000
 -0.0136054000000000  0.0039851800000000 -0.0070750500000000
  0.0033340300000000 -0.0026049200000000  0.0040250200000000
 -0.0005660810000000 -0.0073381500000000  0.0160517000000000
  0.0017685600000000  0.0050071500000000  0.0040381000000000
  0.0088463500000000  0.0052605600000000  0.0002798090000000
 -0.0001278430000000  0.0110791000000000 -0.0048847000000000
 -0.0001306650000000 -0.0013217700000000 -0.0092207100000000
 -0.0065829300000000 -0.0033696900000000 -0.0046947400000000
  0.0047693100000000  0.0034102200000000 -0.0042672600000000
  0.0011142800000000 -0.0045917200000000 -0.0017001900000000
  0.0116767000000000 -0.0000587365000000 -0.0105598000000000
 -0.0044548300000000 -0.0037226600000000 -0.0022851300000000
  0.0027443500000000 -0.0080257800000000  0.0060232400000000
 -0.0038610800000000 -0.0016662700000000  0.0000546748000000
 -0.0075732800000000  0.0027949000000000  0.0014970500000000
  0.0053153000000000 -0.0005301760000000 -0.0049097400000000
 -0.0022604700000000 -0.0072945000000000 -0.0065609400000000
 -0.0026844200000000  0.0088338200000000  0.0201979000000000
  0.0062969800000000  0.0070222000000000  0.0071278600000000
 -0.0063475800000000 -0.0076252100000000  0.0037624900000000
  0.0000224387000000  0.0003430760000000 -0.0000612518000000
 -0.0002625060000000  0.0023986700000000  0.0001964320000000
  0.0006679600000000  0.0010366300000000 -0.0036544100000000
 -0.0027508700000000  0.0046764200000000  0.0006528610000000
  0.0009816110000000 -0.0009400180000000 -0.0121856000000000
 -0.0009913680000000  0.0044505500000000 -0.0034212400000000
 -0.0059264200000000 -0.0008088910000000 -0.0039739500000000
  0.0061126400000000  0.0003889820000000 -0.0060134600000000
 -0.0064951000000000  0.0053963000000000 -0.0125033000000000
 -0.0092537100000000  0.0115600000000000 -0.0090079800000000
 -0.0083012500000000  0.0071947200000000 -0.0016348800000000
  0.0048072200000000 -0.0030866300000000  0.0059251600000000
  0.0000360558000000  0.0039040900000000  0.0030522200000000
 -0.0058625000000000  0.0016375800000000 -0.0080766100000000
  0.0008400720000000  0.0048933500000000 -0.0196568000000000
 -0.0055587900000000  0.0000589100000000  0.0063307800000000
  0.0081083500000000 -0.0093462900000000 -0.0107603000000000
 -0.0051266600000000  0.0022535300000000  0.0017913500000000
 -0.0026872400000000  0.0021151600000000 -0.0072509300000000
 -0.0000896818000000 -0.0019553500000000 -0.0001719650000000
 -0.0079229000000000 -0.0032212300000000  0.0028403900000000
 -0.0039734500000000 -0.0082470100000000 -0.0007938440000000
  0.0005932540000000 -0.0056452600000000 -0.0041842800000000
