N  O  C 
 1.0000000000000000
     9.8654639999999993    0.0000000000000000    0.0000000000000000
    -4.9327329999999998    8.5437419999999999    0.0000000000000000
     0.0000000000000000    0.0000000000000000   26.7272740000000013
 N   O   C  
   1   1  96
Direct
  0.2642859671337457  0.9682712797273139  0.4555758286460490
  0.1661570921715284  0.0062109202267578  0.4605295699067552
  0.9996738951095920  0.0003257471960179  0.0003673101865907
  0.9996743064729685  0.2503259110586439  0.0003672716491775
  0.9996743140319351  0.5003252673126132  0.0003672611729876
  0.9996738931776165  0.7503257940139110  0.0003673083158425
  0.2496747054340223  0.0003257460255705  0.0003673083158425
  0.2496741037455550  0.2503259110586439  0.0003673180437332
  0.2496740160226370  0.5003252673126132  0.0003672720233272
  0.2496747040872707  0.7503257940139110  0.0003672615471372
  0.4996740990074530  0.0003257495369125  0.0003672611729876
  0.4996745092003820  0.2503259110586439  0.0003673086899921
  0.4996745167593484  0.5003252673126132  0.0003673202886310
  0.4996740959050300  0.7503257940139110  0.0003672720233272
  0.7496745044622801  0.0003257495369125  0.0003672716491775
  0.7496739010181415  0.2503259110586439  0.0003672664110826
  0.7496739085771078  0.5003252673126132  0.0003673086899921
  0.7496745013598571  0.7503257940139110  0.0003673180437332
  0.0830075800666932  0.1669924021582112  0.0003612972276933
  0.0830082377222149  0.4169929288595091  0.0003612515814370
  0.0830072316441136  0.6669922851134784  0.0003612691664702
  0.0830078244268629  0.9169928118147763  0.0003613047106862
  0.3330080503942927  0.1669924021582112  0.0003613129419783
  0.3330076295399743  0.4169929288595091  0.0003612968535437
  0.3330075215443150  0.6669922851134784  0.0003612568195320
  0.3330082298816900  0.9169928118147763  0.0003612691664702
  0.5830074422120520  0.1669924021582112  0.0003612687923205
  0.5830080349948014  0.4169929288595091  0.0003613159351754
  0.5830070289167002  0.6669922851134784  0.0003612968535437
  0.5830076216994495  0.9169928118147763  0.0003612515814370
  0.8330078476668792  0.1669924021582112  0.0003612523297363
  0.8330074268125608  0.4169929288595091  0.0003612687923205
  0.8330074343715272  0.6669922851134784  0.0003613129419783
  0.8330080271542766  0.9169928118147763  0.0003612972276933
  0.9033395430266405  0.1120562863438526  0.1210433955965730
  0.9015625443335576  0.3594666131069969  0.1237346539718192
  0.9005955919350682  0.6105486331399053  0.1190772392276145
  0.8949850810620829  0.8615007335193408  0.1180543141062571
  0.1509351446315459  0.1057130470465985  0.1127672055144868
  0.1488781877046604  0.3658818349149588  0.1145923074683935
  0.1491033657198025  0.6077348777619924  0.1162378175941175
  0.1435870706758396  0.8590720553125317  0.1153376135553517
  0.4047868011545192  0.1132961411990203  0.1154547223933125
  0.3933202849550868  0.3542148159436462  0.1209064568275837
  0.4004819831286491  0.6123511220259226  0.1195767289997476
  0.4005539451150069  0.8563929013774059  0.1194977834252756
  0.6556169089814272  0.1115618893922593  0.1198940078962037
  0.6450826086491387  0.3549065503148386  0.1184509127268273
  0.6421153968985130  0.6001878333872909  0.1231887696440722
  0.6476260419182979  0.8527141854236704  0.1204514908628542
  0.0704568718907609  0.1996993823081268  0.1136135320047978
  0.0595110620064157  0.4450766420615229  0.1195497902255202
  0.0711698052940872  0.6949683171612626  0.1166078515901023
  0.0607069657504000  0.9402074641298860  0.1197121711701687
  0.3207340657071056  0.1963577551850231  0.1160862869890884
  0.3139830303961104  0.4406219195289371  0.1137081918642358
  0.3120191204268373  0.6949308628467480  0.1172132257109348
  0.3141202357087052  0.9355385497361696  0.1141451986461470
  0.5698249216948001  0.1891805721661539  0.1210998921925222
  0.5626328455083284  0.4358687329275627  0.1197735317114645
  0.5643842901410063  0.6849961059217379  0.1252997219245030
  0.5698066135272299  0.9434566259140317  0.1207665248614580
  0.8186882654293978  0.1938295889552845  0.1218538037212474
  0.8230290290578840  0.4429113145036449  0.1200949262539831
  0.8040254901977332  0.6892354661458645  0.1174526814818451
  0.8166201405474521  0.9464178576553459  0.1205603684086899
  0.2042050115692697  0.3369390133737653  0.2525038655270268
  0.2019152199617757  0.5829330988693245  0.2526179811678512
  0.2031765351076130  0.0854396118234844  0.2432702265109416
  0.2021323090807898  0.8413163693379319  0.2409968932858622
  0.4516951027620954  0.8371835198207063  0.2455087638193106
  0.4536219931836780  0.0879880267920075  0.2371753288419912
  0.4522644378562503  0.5830922797060117  0.2531975389633825
  0.4509286823859322  0.3270662901571700  0.2445251244103682
  0.9510478994362181  0.3371941708913963  0.2568634571561619
  0.9543502286939045  0.5878501480967004  0.2548187293623734
  0.9510025342382430  0.0850423620001634  0.2514633553724933
  0.9468838090258394  0.8355952227958194  0.2458585937346248
  0.7065867224710249  0.8387694759509358  0.2538818586586870
  0.7062524212650276  0.0930047981317788  0.2462709066401609
  0.7019941849156992  0.5800959345448400  0.2542687293885639
  0.7002049809627363  0.3351259904617906  0.2502073350241405
  0.2867056495594291  0.5021581878291737  0.2557634572085429
  0.2832782543169217  0.7537177503721437  0.2505579132387388
  0.2837571385579773  0.2507343971763192  0.2467153964149131
  0.2864232775781489  0.9960378017032818  0.2324651589982578
  0.5405738925583446  1.0057852870557187  0.2401932198547446
  0.5378844252478951  0.2510878722695513  0.2418241381444288
  0.5335334387776830  0.7506558601605713  0.2546634572609238
  0.5348935186760069  0.4934430370205467  0.2533692736490822
  0.0354130015239512  0.5022541645101175  0.2583888652467887
  0.0407921578966609  0.7540735663600329  0.2477899541868729
  0.0364765067373540  0.2526679761631379  0.2545021987652014
  0.0363859518343048  1.0038318104643142  0.2474760426371952
  0.7875647085846017  1.0103792928204058  0.2508456343134732
  0.7852067998190799  0.2529793151525409  0.2524926410377654
  0.7822807717749092  0.7527029725382626  0.2558438993815830
  0.7820552412702387  0.4986257777915111  0.2530396478144386
Cartesian
  0.0059900000000000  0.0056273800000000  0.0122911000000000
 -0.0112861000000000 -0.0072604500000000  0.0162845000000000
  0.0000000000000000  0.0000000000000000  0.0000000000000000
  0.0000000000000000  0.0000000000000000  0.0000000000000000
  0.0000000000000000  0.0000000000000000  0.0000000000000000
  0.0000000000000000  0.0000000000000000  0.0000000000000000
  0.0000000000000000  0.0000000000000000  0.0000000000000000
  0.0000000000000000  0.0000000000000000  0.0000000000000000
  0.0000000000000000  0.0000000000000000  0.0000000000000000
  0.0000000000000000  0.0000000000000000  0.0000000000000000
  0.0000000000000000  0.0000000000000000  0.0000000000000000
  0.0000000000000000  0.0000000000000000  0.0000000000000000
  0.0000000000000000  0.0000000000000000  0.0000000000000000
  0.0000000000000000  0.0000000000000000  0.0000000000000000
  0.0000000000000000  0.0000000000000000  0.0000000000000000
  0.0000000000000000  0.0000000000000000  0.0000000000000000
  0.0000000000000000  0.0000000000000000  0.0000000000000000
  0.0000000000000000  0.0000000000000000  0.0000000000000000
  0.0000000000000000  0.0000000000000000  0.0000000000000000
  0.0000000000000000  0.0000000000000000  0.0000000000000000
  0.0000000000000000  0.0000000000000000  0.0000000000000000
  0.0000000000000000  0.0000000000000000  0.0000000000000000
  0.0000000000000000  0.0000000000000000  0.0000000000000000
  0.0000000000000000  0.0000000000000000  0.0000000000000000
  0.0000000000000000  0.0000000000000000  0.0000000000000000
  0.0000000000000000  0.0000000000000000  0.0000000000000000
  0.0000000000000000  0.0000000000000000  0.0000000000000000
  0.0000000000000000  0.0000000000000000  0.0000000000000000
  0.0000000000000000  0.0000000000000000  0.0000000000000000
  0.0000000000000000  0.0000000000000000  0.0000000000000000
  0.0000000000000000  0.0000000000000000  0.0000000000000000
  0.0000000000000000  0.0000000000000000  0.0000000000000000
  0.0000000000000000  0.0000000000000000  0.0000000000000000
  0.0000000000000000  0.0000000000000000  0.0000000000000000
 -0.0033682800000000 -0.0029256500000000  0.0147071000000000
 -0.0038071900000000 -0.0050959100000000  0.0150248000000000
  0.0040557800000000 -0.0032282900000000 -0.0107426000000000
 -0.0035448700000000 -0.0077721800000000  0.0040921800000000
  0.0057589500000000  0.0032079500000000 -0.0100023000000000
  0.0032327600000000 -0.0084972800000000  0.0034792200000000
 -0.0035287500000000  0.0010610600000000 -0.0055566200000000
 -0.0002539240000000  0.0025996000000000 -0.0065407500000000
  0.0088600800000000  0.0073315000000000 -0.0084149700000000
  0.0153585000000000 -0.0008857120000000 -0.0055202200000000
  0.0059058700000000 -0.0019657100000000  0.0135001000000000
  0.0012592000000000 -0.0067785600000000 -0.0023178000000000
 -0.0088817400000000 -0.0007957810000000 -0.0022038300000000
 -0.0102420000000000 -0.0062585400000000  0.0108574000000000
 -0.0027352500000000  0.0003832600000000  0.0034926600000000
  0.0013494100000000 -0.0016248400000000  0.0116795000000000
 -0.0054607000000000 -0.0061495500000000 -0.0047060100000000
  0.0071693600000000  0.0043090100000000 -0.0026487600000000
 -0.0022513900000000 -0.0050933200000000  0.0031242800000000
  0.0001192460000000 -0.0024892800000000 -0.0084836000000000
 -0.0052153500000000  0.0016020000000000  0.0075628500000000
 -0.0004283080000000 -0.0053502900000000 -0.0050855800000000
  0.0047015100000000  0.0012710600000000 -0.0014475700000000
 -0.0146617000000000 -0.0086176600000000 -0.0100973000000000
 -0.0071164200000000  0.0002441940000000 -0.0045727200000000
 -0.0062240400000000 -0.0084341700000000  0.0029116300000000
  0.0028225200000000 -0.0113497000000000 -0.0013472700000000
 -0.0009671990000000 -0.0005916560000000  0.0103878000000000
 -0.0046042800000000 -0.0068878000000000  0.0026479900000000
 -0.0026513100000000 -0.0062456900000000  0.0015872900000000
 -0.0027312200000000 -0.0023401800000000 -0.0024616400000000
  0.0000628066000000  0.0023973300000000  0.0021781900000000
  0.0102843000000000 -0.0050832100000000  0.0011683200000000
  0.0017011200000000 -0.0023455700000000  0.0048704700000000
 -0.0005602640000000 -0.0025614900000000  0.0071471300000000
  0.0069203800000000  0.0037815300000000  0.0013027700000000
 -0.0120683000000000  0.0101572000000000 -0.0007109610000000
 -0.0003516030000000 -0.0004361670000000 -0.0058910500000000
 -0.0063702800000000 -0.0066380900000000  0.0146154000000000
  0.0063150400000000 -0.0021781700000000  0.0043012200000000
 -0.0153333000000000 -0.0092086300000000 -0.0133533000000000
  0.0076718600000000  0.0002492070000000  0.0063234600000000
  0.0013178200000000 -0.0010230200000000 -0.0012951800000000
 -0.0062634300000000  0.0090221900000000  0.0010783000000000
  0.0001215790000000  0.0088035800000000 -0.0116135000000000
  0.0048699700000000  0.0079912300000000 -0.0054826200000000
  0.0006620000000000  0.0025653300000000 -0.0075483800000000
 -0.0017300500000000  0.0046991300000000  0.0074747800000000
  0.0006044630000000 -0.0043962000000000 -0.0141836000000000
 -0.0050997500000000  0.0012716100000000  0.0040821700000000
 -0.0014370800000000  0.0064742400000000 -0.0071556600000000
 -0.0045695800000000  0.0115376000000000 -0.0107239000000000
 -0.0037070800000000  0.0162851000000000  0.0106120000000000
 -0.0024313500000000 -0.0109464000000000 -0.0055577900000000
  0.0064950800000000 -0.0057569600000000 -0.0111894000000000
  0.0045107800000000  0.0015181700000000 -0.0115873000000000
 -0.0087747300000000 -0.0000761284000000 -0.0004341430000000
  0.0000647523000000  0.0053196000000000 -0.0016134300000000
  0.0080546100000000  0.0065119500000000  0.0102648000000000
  0.0009331970000000 -0.0077473100000000  0.0027962400000000
  0.0143914000000000 -0.0023056200000000  0.0044162900000000
 -0.0079417400000000  0.0078514400000000  0.0163912000000000
 -0.0031692600000000 -0.0035324900000000 -0.0170255000000000
 -0.0045568000000000 -0.0020337300000000  0.0014397300000000
