N  O  C 
 1.0000000000000000
     9.8654639999999993    0.0000000000000000    0.0000000000000000
    -4.9327329999999998    8.5437419999999999    0.0000000000000000
     0.0000000000000000    0.0000000000000000   26.7272740000000013
 N   O   C  
   1   1  96
Direct
  0.2319500469525850  0.0272921396736933  0.3437391332913338
  0.3424286379161538  1.0097378876843426  0.3452117862824320
  0.9996738951095920  0.0003257471960179  0.0003673101865907
  0.9996743064729685  0.2503259110586439  0.0003672716491775
  0.9996743140319351  0.5003252673126132  0.0003672611729876
  0.9996738931776165  0.7503257940139110  0.0003673083158425
  0.2496747054340223  0.0003257460255705  0.0003673083158425
  0.2496741037455550  0.2503259110586439  0.0003673180437332
  0.2496740160226370  0.5003252673126132  0.0003672720233272
  0.2496747040872707  0.7503257940139110  0.0003672615471372
  0.4996740990074530  0.0003257495369125  0.0003672611729876
  0.4996745092003820  0.2503259110586439  0.0003673086899921
  0.4996745167593484  0.5003252673126132  0.0003673202886310
  0.4996740959050300  0.7503257940139110  0.0003672720233272
  0.7496745044622801  0.0003257495369125  0.0003672716491775
  0.7496739010181415  0.2503259110586439  0.0003672664110826
  0.7496739085771078  0.5003252673126132  0.0003673086899921
  0.7496745013598571  0.7503257940139110  0.0003673180437332
  0.0830075800666932  0.1669924021582112  0.0003612972276933
  0.0830082377222149  0.4169929288595091  0.0003612515814370
  0.0830072316441136  0.6669922851134784  0.0003612691664702
  0.0830078244268629  0.9169928118147763  0.0003613047106862
  0.3330080503942927  0.1669924021582112  0.0003613129419783
  0.3330076295399743  0.4169929288595091  0.0003612968535437
  0.3330075215443150  0.6669922851134784  0.0003612568195320
  0.3330082298816900  0.9169928118147763  0.0003612691664702
  0.5830074422120520  0.1669924021582112  0.0003612687923205
  0.5830080349948014  0.4169929288595091  0.0003613159351754
  0.5830070289167002  0.6669922851134784  0.0003612968535437
  0.5830076216994495  0.9169928118147763  0.0003612515814370
  0.8330078476668792  0.1669924021582112  0.0003612523297363
  0.8330074268125608  0.4169929288595091  0.0003612687923205
  0.8330074343715272  0.6669922851134784  0.0003613129419783
  0.8330080271542766  0.9169928118147763  0.0003612972276933
  0.9519473471430663  0.1687527549403997  0.1326521365403744
  0.9494514978469906  0.4148287717489597  0.1317784971261940
  0.9477057403462734  0.6679637563962020  0.1377098914015698
  0.9500271873255256  0.9168465058987034  0.1321810821410369
  0.2023786800084743  0.1718052815733434  0.1294206060820119
  0.2005685753670425  0.4145642506526999  0.1371486669384989
  0.2004414683945222  0.6671409319242084  0.1307656740451720
  0.2000863191979190  0.9156819108067635  0.1340649255887451
  0.4476616432966759  0.1660782827945881  0.1321055039133434
  0.4519944719637723  0.4154198476498939  0.1317212522309608
  0.4504610615124866  0.6636822600682465  0.1291220346676582
  0.4540308947251939  0.9211256613320019  0.1346302656978785
  0.6962438349277869  0.1641318288871551  0.1315012522414370
  0.6990927075506578  0.4177104130719303  0.1346418643367820
  0.7043224326383781  0.6649006957373010  0.1317717624326372
  0.6893011316090465  0.9109322355473749  0.1290632931738568
  0.1265241965237097  0.2527721459753817  0.1318013202543589
  0.1165930582945369  0.4997482367796219  0.1342722044904393
  0.1188315143691250  0.7506605419498857  0.1342153337448480
  0.1121826253610100  0.0067414254784379  0.1344323405372355
  0.3634023785400839  0.2512447122115813  0.1345124085606336
  0.3708838351241264  0.4990014913839861  0.1303612182821189
  0.3723925671772494  0.7525672006481469  0.1332099936566670
  0.3708125557594605 -0.0003491128360384  0.1340709119830178
  0.6165591883118466  0.2512891892100674  0.1354548915089508
  0.6214387160993592  0.4972540135224121  0.1303077148833061
  0.6194369108600001  0.7486321567294518  0.1283887013692455
  0.6196536977307496  0.0054718646700708  0.1322076467656223
  0.8605623268949337  0.2503270815059724  0.1294853339700861
  0.8630595727625163  0.4992390921916884  0.1339220004254830
  0.8663885212621545  0.7492407893403148  0.1359233268607939
  0.8626623265709409 -0.0069547395040721  0.1289506741316006
  0.1964963457233311  0.3054762187341332  0.2618897834474253
  0.1921270135308223  0.5546258302275513  0.2616570623700719
  0.2006364438182701  0.0595920382427278  0.2459682195797447
  0.1959110642184076  0.8111656461536410  0.2461870971203423
  0.4427275806807615  0.8058974627276900  0.2509496479139623
  0.4474280271184841  0.0573850427599523  0.2483915868112850
  0.4487535454187104  0.5565336593731411  0.2650625724119863
  0.4407120539236486  0.3085650292342629  0.2527945797988975
  0.9461433037195430  0.3065506893817720  0.2662837968436287
  0.9422087819112420  0.5625029407489130  0.2632008037931590
  0.9502620404799400  0.0623601461748260  0.2590960080702581
  0.9458583421092521  0.8097400413074272  0.2563594775883242
  0.6981061281683782  0.8154892785854254  0.2672053274119912
  0.6982245171464798  0.0652577055814654  0.2547727089564016
  0.6974795704014531  0.5562047636738094  0.2671959736709401
  0.7015203181905264  0.3160242900593206  0.2540438654536935
  0.2776063593728787  0.4762152227911377  0.2647366880737632
  0.2778820714348226  0.7277186038623358  0.2524144437625775
  0.2706621551730244  0.2235530988646427  0.2489662806614696
  0.2808398944976874  0.9761355153280612  0.2396739001515830
  0.5345535873414440  0.9799476622772552  0.2516160084264486
  0.5327718848560518  0.2269942140106759  0.2508138315938992
  0.5314750093953622  0.7266230651627823  0.2623769262813709
  0.5268787066371772  0.4697847851679042  0.2619081167798856
  0.0255665429924622  0.4764774029927402  0.2688987286918973
  0.0304259041290760  0.7264158959856232  0.2560672667178853
  0.0300123875195038  0.2207709455646016  0.2636464160168374
  0.0335224966801791  0.9774733366246311  0.2521207362935704
  0.7801282298656037  0.9771737021085141  0.2646745792331833
  0.7795712062642944  0.2263130136654407  0.2626384568811619
  0.7802386732090851  0.7289744938459051  0.2683483545684457
  0.7807234354681111  0.4731229009490220  0.2586863142122163
Cartesian
 -0.0132268000000000 -0.0096254200000000  0.0167883000000000
  0.0059533400000000  0.0054829700000000  0.0108672000000000
  0.0000000000000000  0.0000000000000000  0.0000000000000000
  0.0000000000000000  0.0000000000000000  0.0000000000000000
  0.0000000000000000  0.0000000000000000  0.0000000000000000
  0.0000000000000000  0.0000000000000000  0.0000000000000000
  0.0000000000000000  0.0000000000000000  0.0000000000000000
  0.0000000000000000  0.0000000000000000  0.0000000000000000
  0.0000000000000000  0.0000000000000000  0.0000000000000000
  0.0000000000000000  0.0000000000000000  0.0000000000000000
  0.0000000000000000  0.0000000000000000  0.0000000000000000
  0.0000000000000000  0.0000000000000000  0.0000000000000000
  0.0000000000000000  0.0000000000000000  0.0000000000000000
  0.0000000000000000  0.0000000000000000  0.0000000000000000
  0.0000000000000000  0.0000000000000000  0.0000000000000000
  0.0000000000000000  0.0000000000000000  0.0000000000000000
  0.0000000000000000  0.0000000000000000  0.0000000000000000
  0.0000000000000000  0.0000000000000000  0.0000000000000000
  0.0000000000000000  0.0000000000000000  0.0000000000000000
  0.0000000000000000  0.0000000000000000  0.0000000000000000
  0.0000000000000000  0.0000000000000000  0.0000000000000000
  0.0000000000000000  0.0000000000000000  0.0000000000000000
  0.0000000000000000  0.0000000000000000  0.0000000000000000
  0.0000000000000000  0.0000000000000000  0.0000000000000000
  0.0000000000000000  0.0000000000000000  0.0000000000000000
  0.0000000000000000  0.0000000000000000  0.0000000000000000
  0.0000000000000000  0.0000000000000000  0.0000000000000000
  0.0000000000000000  0.0000000000000000  0.0000000000000000
  0.0000000000000000  0.0000000000000000  0.0000000000000000
  0.0000000000000000  0.0000000000000000  0.0000000000000000
  0.0000000000000000  0.0000000000000000  0.0000000000000000
  0.0000000000000000  0.0000000000000000  0.0000000000000000
  0.0000000000000000  0.0000000000000000  0.0000000000000000
  0.0000000000000000  0.0000000000000000  0.0000000000000000
  0.0001249760000000  0.0012138600000000  0.0090760400000000
  0.0007437790000000 -0.0025834000000000  0.0010734400000000
  0.0037910100000000 -0.0010888600000000 -0.0114112000000000
  0.0068160100000000 -0.0040735400000000 -0.0011532100000000
 -0.0040138900000000 -0.0013547600000000 -0.0040792700000000
  0.0042813400000000 -0.0141044000000000 -0.0008786620000000
 -0.0054803800000000  0.0089474900000000 -0.0040336900000000
 -0.0046046300000000  0.0042667400000000  0.0015822200000000
 -0.0002951600000000 -0.0029000000000000 -0.0007628680000000
 -0.0012487500000000 -0.0022521600000000 -0.0180593000000000
  0.0072293300000000 -0.0027664900000000  0.0064060900000000
 -0.0097197500000000 -0.0045555400000000 -0.0062796100000000
 -0.0025905800000000 -0.0012699800000000  0.0095963900000000
 -0.0105029000000000 -0.0032978300000000  0.0070063400000000
  0.0028025200000000  0.0102390000000000  0.0070181400000000
  0.0019689200000000 -0.0088882800000000  0.0063481800000000
 -0.0038882300000000 -0.0078188800000000 -0.0063361200000000
 -0.0057388400000000 -0.0097809300000000 -0.0047546700000000
 -0.0037654000000000 -0.0111096000000000 -0.0014331000000000
  0.0038795100000000 -0.0077437800000000 -0.0139395000000000
  0.0094125800000000 -0.0034495300000000  0.0017364800000000
 -0.0045029000000000 -0.0044792000000000  0.0077120500000000
 -0.0012727000000000  0.0020387000000000 -0.0062746900000000
 -0.0059504800000000 -0.0023536800000000 -0.0016158200000000
 -0.0170636000000000  0.0009863000000000 -0.0036076500000000
  0.0096998500000000  0.0001499640000000 -0.0044854900000000
 -0.0034922000000000  0.0084452200000000 -0.0026181000000000
  0.0084483600000000  0.0033198800000000  0.0065120100000000
 -0.0104932000000000 -0.0068276100000000  0.0005940430000000
  0.0071914400000000 -0.0018851000000000  0.0045872500000000
 -0.0031262000000000 -0.0007295390000000  0.0025705700000000
 -0.0026869000000000 -0.0055933200000000 -0.0001414090000000
  0.0081379900000000  0.0033620400000000 -0.0045742800000000
 -0.0045467500000000 -0.0044111900000000  0.0106999000000000
 -0.0029373200000000 -0.0013951300000000 -0.0010026000000000
 -0.0010652100000000 -0.0040204900000000 -0.0076241500000000
 -0.0015040800000000  0.0020122900000000 -0.0047040700000000
 -0.0049616300000000 -0.0018739900000000 -0.0115233000000000
 -0.0004427380000000  0.0045021600000000  0.0030995100000000
 -0.0070734800000000  0.0074612100000000 -0.0028487000000000
 -0.0080905900000000  0.0010640300000000  0.0014877200000000
  0.0047073000000000  0.0028707400000000 -0.0029697400000000
  0.0052825900000000 -0.0017960900000000 -0.0139784000000000
 -0.0090504900000000  0.0024375800000000 -0.0036467800000000
  0.0061209200000000 -0.0071121200000000  0.0000701570000000
  0.0080760100000000 -0.0067260100000000 -0.0147537000000000
 -0.0090852000000000  0.0054523400000000 -0.0056523400000000
 -0.0019904100000000  0.0051849600000000 -0.0106733000000000
  0.0023580100000000  0.0046330800000000 -0.0127306000000000
  0.0055527200000000 -0.0062831200000000 -0.0094894400000000
 -0.0032612900000000  0.0162281000000000 -0.0059468000000000
 -0.0043206600000000 -0.0062343800000000  0.0100786000000000
  0.0072413000000000  0.0000093616800000  0.0050426400000000
 -0.0007344230000000 -0.0021701900000000  0.0052426700000000
 -0.0094924800000000 -0.0046069400000000 -0.0119759000000000
 -0.0025460700000000  0.0136056000000000 -0.0126862000000000
 -0.0029112100000000  0.0023419700000000  0.0056707200000000
  0.0174974000000000 -0.0029055800000000 -0.0068369800000000
  0.0024399300000000 -0.0086674600000000  0.0133230000000000
 -0.0127172000000000  0.0022305800000000 -0.0068151100000000
  0.0013875400000000 -0.0015909400000000  0.0064941000000000
  0.0012645500000000  0.0024911100000000  0.0087582500000000
 -0.0052251400000000  0.0073300100000000 -0.0092800200000000
  0.0046292700000000  0.0064261400000000  0.0017552500000000
