N  O  C 
 1.0000000000000000
     9.8654639999999993    0.0000000000000000    0.0000000000000000
    -4.9327329999999998    8.5437419999999999    0.0000000000000000
     0.0000000000000000    0.0000000000000000   26.7272740000000013
 N   O   C  
   1   1  96
Direct
  0.2961176809350701  0.3098806120315899  0.4188904562433116
  0.3606114943070245  0.4357259383534756  0.4038084841723851
  0.9996738951095920  0.0003257471960179  0.0003673101865907
  0.9996743064729685  0.2503259110586439  0.0003672716491775
  0.9996743140319351  0.5003252673126132  0.0003672611729876
  0.9996738931776165  0.7503257940139110  0.0003673083158425
  0.2496747054340223  0.0003257460255705  0.0003673083158425
  0.2496741037455550  0.2503259110586439  0.0003673180437332
  0.2496740160226370  0.5003252673126132  0.0003672720233272
  0.2496747040872707  0.7503257940139110  0.0003672615471372
  0.4996740990074530  0.0003257495369125  0.0003672611729876
  0.4996745092003820  0.2503259110586439  0.0003673086899921
  0.4996745167593484  0.5003252673126132  0.0003673202886310
  0.4996740959050300  0.7503257940139110  0.0003672720233272
  0.7496745044622801  0.0003257495369125  0.0003672716491775
  0.7496739010181415  0.2503259110586439  0.0003672664110826
  0.7496739085771078  0.5003252673126132  0.0003673086899921
  0.7496745013598571  0.7503257940139110  0.0003673180437332
  0.0830075800666932  0.1669924021582112  0.0003612972276933
  0.0830082377222149  0.4169929288595091  0.0003612515814370
  0.0830072316441136  0.6669922851134784  0.0003612691664702
  0.0830078244268629  0.9169928118147763  0.0003613047106862
  0.3330080503942927  0.1669924021582112  0.0003613129419783
  0.3330076295399743  0.4169929288595091  0.0003612968535437
  0.3330075215443150  0.6669922851134784  0.0003612568195320
  0.3330082298816900  0.9169928118147763  0.0003612691664702
  0.5830074422120520  0.1669924021582112  0.0003612687923205
  0.5830080349948014  0.4169929288595091  0.0003613159351754
  0.5830070289167002  0.6669922851134784  0.0003612968535437
  0.5830076216994495  0.9169928118147763  0.0003612515814370
  0.8330078476668792  0.1669924021582112  0.0003612523297363
  0.8330074268125608  0.4169929288595091  0.0003612687923205
  0.8330074343715272  0.6669922851134784  0.0003613129419783
  0.8330080271542766  0.9169928118147763  0.0003612972276933
  0.7889955944319098  0.9401700098153712  0.1267850960034308
  0.7837273339014885  0.1878134896863693  0.1309505039683433
  0.7767560928871605  0.4301265183335358  0.1269534633423521
  0.7821690631271565  0.6846145400926199  0.1264670688076906
  0.0369335309117537  0.9375201170634602  0.1247340076657275
  0.0315137533231897  0.1826096808634905  0.1276254360994690
  0.0299744022256672  0.4350248404036545  0.1288159802604635
  0.0301438292476226  0.6860401449388336  0.1306429529625805
  0.2870727193545139  0.9327599077781141  0.1281181911780453
  0.2832302012236101  0.1887873018637501  0.1256922048990106
  0.2771828539672678  0.4354895079931019  0.1283744836828477
  0.2935872354545297  0.6881410978936395  0.1253184294066054
  0.5411126845851171  0.9426139038374520  0.1247471029031992
  0.5353952092087297  0.1819928551213274  0.1305554019463414
  0.5334369140610588  0.4399067762111730  0.1262193817446553
  0.5355683050182536  0.6823661107744124  0.1221385315988454
  0.9513130246896605  0.0231158665605773  0.1241226471506223
  0.9543942418006186  0.2691818175221115  0.1295478169603080
  0.9416045744973509  0.5192022418279952  0.1314668304743686
  0.9522457431039224  0.7715167428979012  0.1253805382471853
  0.2048241326454769  0.0168841708937372  0.1282356741656482
  0.1967264798101258  0.2687943994563506  0.1293869326142277
  0.1978101988126794  0.5188593007607205  0.1255253341586576
  0.2031618787120651  0.7683846258466138  0.1267589055284875
  0.4548529645432539  0.0181634698238781  0.1282427830088471
  0.4483148533986468  0.2717345631457504  0.1272718646877343
  0.4473431464884919  0.5173435714702059  0.1262695177966896
  0.4584693685904229  0.7694602669415813  0.1238749600875869
  0.7112954052248653  0.0277005087466358  0.1238914226718370
  0.7015215402238586  0.2670761827779912  0.1263664225539799
  0.7020997709870731  0.5167115299127713  0.1269624429337612
  0.7000171251143208  0.7727691215394847  0.1216798241376955
  0.0941717861488319  0.3756901835284820  0.2597328107610226
  0.0950624033649539  0.6285044656076928  0.2510364506309173
  0.0915218028492995  0.1357379471430668  0.2590200556929225
  0.0997814631873995  0.8870012694671726  0.2471033895937161
  0.3494816276129561  0.8867016349510555  0.2471696140803585
  0.3450742950110509  0.1291389651045174  0.2588543074014956
  0.3467409395513539  0.6300002972936215  0.2604246134491681
  0.3467797369674255  0.3797434426273640  0.2765018235679403
  0.8432725228671671  0.3752594589115636  0.2462121651463595
  0.8406477653067976  0.6268634984530198  0.2442332876895713
  0.8423334693176520  0.1303456963002862  0.2498979132701674
  0.8464851700884783  0.8802805609064506  0.2479231514594418
  0.5859467671512442  0.8776669520217254  0.2513009744278448
  0.5932581272482358  0.1299313579459679  0.2487691038001107
  0.5898444215594461  0.6252272130876612  0.2574362802581363
  0.5909745942193845  0.3738958877737647  0.2533902260290369
  0.1832831303069865  0.5413915822832666  0.2541748178284101
  0.1816474810221764  0.8007521762712404  0.2468078113764988
  0.1770975463504553  0.2921600394768475  0.2698318578991633
  0.1737030379077827  0.0487500675933332  0.2577490693588879
  0.4309677676640692  0.0491100971916053  0.2538291035591583
  0.4265093526584258  0.2950580670624183  0.2673246811478043
  0.4233698309617018  0.7976095251939957  0.2531533893056209
  0.4285790957927180  0.5440192365359348  0.2660705315476617
  0.9240060643566876  0.5448619586125143  0.2484215187826488
  0.9291160788566754  0.7972560501007638  0.2450040359521888
  0.9284393024741909  0.2950381694578324  0.2546896477358671
  0.9266714610238019  0.0485357586874697  0.2526475389895730
  0.6782179632436461  0.0484305354726301  0.2498784574887809
  0.6754275116837434  0.2944424117675838  0.2518318927699099
  0.6750313589139638  0.7911978147280196  0.2509545118593089
  0.6750800574375558  0.5458673728677669  0.2537958042410161
Cartesian
 -0.0017399200000000  0.0114867000000000  0.0119404000000000
 -0.0003440470000000 -0.0079676400000000  0.0197470000000000
  0.0000000000000000  0.0000000000000000  0.0000000000000000
  0.0000000000000000  0.0000000000000000  0.0000000000000000
  0.0000000000000000  0.0000000000000000  0.0000000000000000
  0.0000000000000000  0.0000000000000000  0.0000000000000000
  0.0000000000000000  0.0000000000000000  0.0000000000000000
  0.0000000000000000  0.0000000000000000  0.0000000000000000
  0.0000000000000000  0.0000000000000000  0.0000000000000000
  0.0000000000000000  0.0000000000000000  0.0000000000000000
  0.0000000000000000  0.0000000000000000  0.0000000000000000
  0.0000000000000000  0.0000000000000000  0.0000000000000000
  0.0000000000000000  0.0000000000000000  0.0000000000000000
  0.0000000000000000  0.0000000000000000  0.0000000000000000
  0.0000000000000000  0.0000000000000000  0.0000000000000000
  0.0000000000000000  0.0000000000000000  0.0000000000000000
  0.0000000000000000  0.0000000000000000  0.0000000000000000
  0.0000000000000000  0.0000000000000000  0.0000000000000000
  0.0000000000000000  0.0000000000000000  0.0000000000000000
  0.0000000000000000  0.0000000000000000  0.0000000000000000
  0.0000000000000000  0.0000000000000000  0.0000000000000000
  0.0000000000000000  0.0000000000000000  0.0000000000000000
  0.0000000000000000  0.0000000000000000  0.0000000000000000
  0.0000000000000000  0.0000000000000000  0.0000000000000000
  0.0000000000000000  0.0000000000000000  0.0000000000000000
  0.0000000000000000  0.0000000000000000  0.0000000000000000
  0.0000000000000000  0.0000000000000000  0.0000000000000000
  0.0000000000000000  0.0000000000000000  0.0000000000000000
  0.0000000000000000  0.0000000000000000  0.0000000000000000
  0.0000000000000000  0.0000000000000000  0.0000000000000000
  0.0000000000000000  0.0000000000000000  0.0000000000000000
  0.0000000000000000  0.0000000000000000  0.0000000000000000
  0.0000000000000000  0.0000000000000000  0.0000000000000000
  0.0000000000000000  0.0000000000000000  0.0000000000000000
 -0.0045368500000000 -0.0023954900000000 -0.0060254900000000
 -0.0040669800000000 -0.0014592100000000 -0.0092655700000000
 -0.0072952200000000  0.0006403470000000 -0.0104380000000000
 -0.0013550700000000  0.0016421200000000 -0.0063630800000000
  0.0027170400000000  0.0003973610000000  0.0003799360000000
 -0.0109785000000000  0.0022377200000000 -0.0114222000000000
 -0.0055794400000000 -0.0025716300000000 -0.0003191720000000
 -0.0025978600000000 -0.0039764900000000  0.0030750300000000
  0.0129530000000000  0.0014245200000000  0.0062951100000000
 -0.0013302200000000 -0.0099526200000000 -0.0083356500000000
 -0.0005480740000000 -0.0015462000000000  0.0049837800000000
  0.0014958500000000  0.0005967820000000 -0.0125816000000000
 -0.0078384600000000  0.0004627250000000 -0.0039165400000000
  0.0058022900000000 -0.0055382800000000 -0.0036307700000000
 -0.0023719400000000 -0.0036690500000000  0.0007884740000000
 -0.0003836390000000  0.0011755300000000  0.0143419000000000
 -0.0103581000000000 -0.0055292500000000 -0.0091373500000000
  0.0046130700000000 -0.0026398900000000 -0.0084314000000000
 -0.0087121000000000  0.0137971000000000 -0.0054182500000000
 -0.0051351600000000 -0.0063353300000000 -0.0096917700000000
  0.0014222800000000  0.0016000900000000 -0.0035353900000000
  0.0073798800000000  0.0022760600000000 -0.0032143700000000
  0.0094247700000000  0.0018191300000000 -0.0022390500000000
 -0.0026873800000000  0.0029660000000000 -0.0127739000000000
 -0.0046590700000000 -0.0117529000000000 -0.0099453800000000
 -0.0050739900000000  0.0013784400000000  0.0003414170000000
 -0.0025117700000000 -0.0008055480000000  0.0039681000000000
  0.0002663320000000 -0.0049740600000000  0.0046526400000000
  0.0059848000000000  0.0048620400000000  0.0077816100000000
  0.0017086000000000 -0.0035631500000000 -0.0046734400000000
  0.0005258450000000 -0.0023973000000000 -0.0008448960000000
  0.0089006000000000  0.0031974700000000  0.0030788800000000
  0.0077983300000000  0.0028041500000000 -0.0053584500000000
 -0.0082369700000000  0.0002532280000000  0.0023115900000000
 -0.0030614600000000 -0.0007236410000000 -0.0082217400000000
  0.0035629200000000 -0.0048532700000000  0.0040110600000000
 -0.0000908173000000 -0.0059813200000000  0.0025643200000000
  0.0008732890000000  0.0000085160400000 -0.0118773000000000
 -0.0008576180000000 -0.0084891800000000 -0.0066900400000000
  0.0059873300000000 -0.0046062300000000 -0.0065320500000000
 -0.0073535000000000  0.0025750300000000  0.0051475000000000
  0.0034668900000000 -0.0022431700000000  0.0014412200000000
 -0.0037956100000000 -0.0018973100000000  0.0088663100000000
 -0.0039985300000000 -0.0015191300000000 -0.0009435360000000
 -0.0079035000000000  0.0110234000000000  0.0012394000000000
  0.0036398600000000  0.0092141700000000  0.0056501600000000
 -0.0038396700000000  0.0111951000000000 -0.0054621000000000
 -0.0076599500000000 -0.0034593000000000 -0.0042927300000000
  0.0003017820000000 -0.0028147300000000  0.0094505800000000
  0.0001935060000000  0.0094373500000000 -0.0054319800000000
  0.0062630000000000 -0.0009231880000000  0.0042382300000000
 -0.0030401000000000  0.0005812490000000  0.0049138800000000
 -0.0002154230000000  0.0077911300000000 -0.0079379300000000
 -0.0032002000000000  0.0064837800000000  0.0029593100000000
  0.0028929600000000 -0.0012161600000000  0.0072676000000000
 -0.0070326600000000 -0.0126853000000000  0.0026212900000000
 -0.0030466300000000 -0.0035585000000000 -0.0062639000000000
 -0.0079016500000000  0.0005094390000000  0.0055030100000000
 -0.0082111300000000  0.0024756700000000 -0.0059961800000000
 -0.0088652100000000  0.0027935300000000  0.0021356800000000
  0.0098334300000000  0.0043113400000000 -0.0066290000000000
 -0.0017447300000000 -0.0014601400000000 -0.0120535000000000
  0.0009977600000000 -0.0116764000000000  0.0004504070000000
 -0.0042850700000000  0.0039059700000000  0.0116303000000000
