N  O  C 
 1.0000000000000000
     9.8654639999999993    0.0000000000000000    0.0000000000000000
    -4.9327329999999998    8.5437419999999999    0.0000000000000000
     0.0000000000000000    0.0000000000000000   26.7272740000000013
 N   O   C  
   1   1  96
Direct
  0.5196423918972266  0.0039721002811180  0.3802969206661331
  0.6460422180834662  0.0303637445980930  0.3968904572909306
  0.9996738951095920  0.0003257471960179  0.0003673101865907
  0.9996743064729685  0.2503259110586439  0.0003672716491775
  0.9996743140319351  0.5003252673126132  0.0003672611729876
  0.9996738931776165  0.7503257940139110  0.0003673083158425
  0.2496747054340223  0.0003257460255705  0.0003673083158425
  0.2496741037455550  0.2503259110586439  0.0003673180437332
  0.2496740160226370  0.5003252673126132  0.0003672720233272
  0.2496747040872707  0.7503257940139110  0.0003672615471372
  0.4996740990074530  0.0003257495369125  0.0003672611729876
  0.4996745092003820  0.2503259110586439  0.0003673086899921
  0.4996745167593484  0.5003252673126132  0.0003673202886310
  0.4996740959050300  0.7503257940139110  0.0003672720233272
  0.7496745044622801  0.0003257495369125  0.0003672716491775
  0.7496739010181415  0.2503259110586439  0.0003672664110826
  0.7496739085771078  0.5003252673126132  0.0003673086899921
  0.7496745013598571  0.7503257940139110  0.0003673180437332
  0.0830075800666932  0.1669924021582112  0.0003612972276933
  0.0830082377222149  0.4169929288595091  0.0003612515814370
  0.0830072316441136  0.6669922851134784  0.0003612691664702
  0.0830078244268629  0.9169928118147763  0.0003613047106862
  0.3330080503942927  0.1669924021582112  0.0003613129419783
  0.3330076295399743  0.4169929288595091  0.0003612968535437
  0.3330075215443150  0.6669922851134784  0.0003612568195320
  0.3330082298816900  0.9169928118147763  0.0003612691664702
  0.5830074422120520  0.1669924021582112  0.0003612687923205
  0.5830080349948014  0.4169929288595091  0.0003613159351754
  0.5830070289167002  0.6669922851134784  0.0003612968535437
  0.5830076216994495  0.9169928118147763  0.0003612515814370
  0.8330078476668792  0.1669924021582112  0.0003612523297363
  0.8330074268125608  0.4169929288595091  0.0003612687923205
  0.8330074343715272  0.6669922851134784  0.0003613129419783
  0.8330080271542766  0.9169928118147763  0.0003612972276933
  0.0442996572146484  0.3337635897713203  0.1250711164932121
  0.0525999904239874  0.5859821141602825  0.1259211844799436
  0.0508796570504378  0.8359709363882944  0.1235842458157162
  0.0547007338326543  0.0957876537002171  0.1223009125434940
  0.2934236413207169  0.3321425202212333  0.1269777830690852
  0.2947321879229216  0.5871537319361938  0.1228149941516669
  0.2979439184577348  0.8393734267724845  0.1278757422099987
  0.2927959414206787  0.0834664717169596  0.1244735995148626
  0.5456842884486129  0.3371637392608532  0.1269414905538066
  0.5521248290269632  0.5820014227957727  0.1215178173426890
  0.5438324497640463  0.8327978536805067  0.1203631915473310
  0.5501731279310510  0.0925740735148604  0.1189859467149549
  0.7941156391721378  0.3368921954806219  0.1221254363613738
  0.7984511556980766  0.5874919912141542  0.1245274770633174
  0.8061718006574837  0.8439112510653997  0.1226178172903080
  0.7990303533966577  0.0899086138134789  0.1204380214757405
  0.2108177744734471  0.4178859801712178  0.1253711845061341
  0.2134536720388487  0.6749056795020262  0.1226440077652513
  0.2205057679685589  0.9247493662612940  0.1281391435580000
  0.2104635246473401  0.1703234952553577  0.1240021709658830
  0.4621387753801455  0.4209478703827901  0.1243965246886009
  0.4663105765985986  0.6638227137476763  0.1220535996301007
  0.4696297925674336  0.9286059902089741  0.1225833955232397
  0.4630984763972835  0.1675483646392880  0.1278491775854133
  0.7147237998799207  0.4174728122642281  0.1250355722772176
  0.7266415823513089  0.6778364796127974  0.1227360485771950
  0.7216737312810795  0.9246124239238498  0.1192635657493540
  0.7182337912981126  0.1746576617130995  0.1213030554481538
  0.9648164423881282  0.4196744236892921  0.1234787356166589
  0.9653700274850030  0.6683441517779914  0.1251998239700764
  0.9742564230905705  0.9237884290045276  0.1220797901050440
  0.9645253983852432  0.1713452957732104  0.1243190757126971
  0.2894267584506787  0.2578893416959454  0.2449288318741373
  0.2909610824783106  0.5047636035825989  0.2442635938105772
  0.2880717661347438  0.0088656001082430  0.2459027433923864
  0.2917303335372409  0.7588560141446219  0.2478883555427314
  0.5393389384820576  0.7546868807602102  0.2455383216410323
  0.5379242626661926  0.0037833890583306  0.2652496472330100
  0.5389106202796968  0.5081368327835742  0.2414978796565636
  0.5420144659745618  0.2629281174454940  0.2517327431147673
  0.0352710297756658  0.2508210102786343  0.2518090696417450
  0.0362818430798779  0.5080443674446162  0.2427437979645810
  0.0386781292258925  0.0057251611764494  0.2477241038498726
  0.0318821273680517  0.7535339901415562  0.2439968251157975
  0.7883535550129920  0.7566157779577146  0.2436062128895001
  0.7899606168950363  0.0031256561820336  0.2612054637521208
  0.7896777767315216  0.5117523445815663  0.2407181518025370
  0.7933424678080178  0.2673652832681511  0.2605970964341519
  0.3728455184982438  0.4310113765139443  0.2432036278746572
  0.3702584635864244  0.6706990918030998  0.2452393760770365
  0.3668297855044526  0.1771565667596236  0.2463502263642749
  0.3738522073966082  0.9255101570248727  0.2528413485041535
  0.6261662832380015  0.9225313685736297  0.2602083549560647
  0.6222571718097120  0.1724349822361209  0.2571283551027314
  0.6242425839844334  0.6730493500388940  0.2426457707583647
  0.6198134303202952  0.4257349999566935  0.2424313830134716
  0.1224870636090985  0.4206622812346160  0.2473402263171321
  0.1224916792508546  0.6776562307241956  0.2413381177594094
  0.1224533716497297  0.1735480776456031  0.2508074710499844
  0.1234186232720530  0.9257711667791467  0.2382229478397236
  0.8714013001678742  0.9194554329941144  0.2477087637145487
  0.8743064916402324  0.1770781467886086  0.2579765523412526
  0.8677962130312528  0.6772477446065202  0.2431273013476795
  0.8696242761056935  0.4265519721920442  0.2488731174005999
Cartesian
 -0.0000765938000000 -0.0000673763000000  0.0153769000000000
  0.0049727900000000 -0.0010148100000000  0.0142228000000000
  0.0000000000000000  0.0000000000000000  0.0000000000000000
  0.0000000000000000  0.0000000000000000  0.0000000000000000
  0.0000000000000000  0.0000000000000000  0.0000000000000000
  0.0000000000000000  0.0000000000000000  0.0000000000000000
  0.0000000000000000  0.0000000000000000  0.0000000000000000
  0.0000000000000000  0.0000000000000000  0.0000000000000000
  0.0000000000000000  0.0000000000000000  0.0000000000000000
  0.0000000000000000  0.0000000000000000  0.0000000000000000
  0.0000000000000000  0.0000000000000000  0.0000000000000000
  0.0000000000000000  0.0000000000000000  0.0000000000000000
  0.0000000000000000  0.0000000000000000  0.0000000000000000
  0.0000000000000000  0.0000000000000000  0.0000000000000000
  0.0000000000000000  0.0000000000000000  0.0000000000000000
  0.0000000000000000  0.0000000000000000  0.0000000000000000
  0.0000000000000000  0.0000000000000000  0.0000000000000000
  0.0000000000000000  0.0000000000000000  0.0000000000000000
  0.0000000000000000  0.0000000000000000  0.0000000000000000
  0.0000000000000000  0.0000000000000000  0.0000000000000000
  0.0000000000000000  0.0000000000000000  0.0000000000000000
  0.0000000000000000  0.0000000000000000  0.0000000000000000
  0.0000000000000000  0.0000000000000000  0.0000000000000000
  0.0000000000000000  0.0000000000000000  0.0000000000000000
  0.0000000000000000  0.0000000000000000  0.0000000000000000
  0.0000000000000000  0.0000000000000000  0.0000000000000000
  0.0000000000000000  0.0000000000000000  0.0000000000000000
  0.0000000000000000  0.0000000000000000  0.0000000000000000
  0.0000000000000000  0.0000000000000000  0.0000000000000000
  0.0000000000000000  0.0000000000000000  0.0000000000000000
  0.0000000000000000  0.0000000000000000  0.0000000000000000
  0.0000000000000000  0.0000000000000000  0.0000000000000000
  0.0000000000000000  0.0000000000000000  0.0000000000000000
  0.0000000000000000  0.0000000000000000  0.0000000000000000
 -0.0045451200000000 -0.0004681200000000 -0.0063723900000000
  0.0012297200000000  0.0053039000000000 -0.0009234480000000
  0.0064495700000000 -0.0063535700000000  0.0002696830000000
  0.0117167000000000 -0.0032710400000000 -0.0015808000000000
  0.0057453500000000 -0.0032000200000000 -0.0075763100000000
 -0.0022664400000000 -0.0103853000000000 -0.0039086200000000
 -0.0061623000000000 -0.0029142800000000  0.0014827600000000
  0.0018723700000000  0.0020279400000000 -0.0141779000000000
 -0.0040273500000000  0.0005589620000000 -0.0091096400000000
 -0.0014472400000000 -0.0041252200000000 -0.0067707700000000
 -0.0032911000000000 -0.0019453200000000 -0.0117284000000000
 -0.0047311000000000 -0.0047310800000000  0.0032500500000000
 -0.0003172870000000 -0.0102904000000000  0.0109568000000000
 -0.0080256700000000  0.0061243100000000 -0.0128000000000000
 -0.0008227470000000  0.0063922300000000 -0.0040368100000000
 -0.0035726100000000  0.0066360600000000  0.0008495340000000
  0.0092754500000000 -0.0035752600000000 -0.0029860800000000
  0.0027575900000000  0.0017963000000000 -0.0074883300000000
  0.0039211400000000 -0.0072564500000000 -0.0081071400000000
 -0.0066713600000000  0.0047948600000000 -0.0060381300000000
 -0.0110797000000000 -0.0083773900000000 -0.0116724000000000
 -0.0142337000000000  0.0042748700000000 -0.0036598900000000
  0.0043998000000000 -0.0026486000000000  0.0102843000000000
 -0.0002763640000000 -0.0077831400000000  0.0147004000000000
  0.0012414800000000  0.0064356800000000  0.0057461700000000
  0.0080995800000000  0.0059391200000000  0.0017385600000000
  0.0004675790000000  0.0109434000000000 -0.0015009800000000
  0.0008732090000000 -0.0007873120000000 -0.0028652500000000
 -0.0051337300000000 -0.0037682700000000 -0.0012990200000000
  0.0054094700000000  0.0035773400000000 -0.0074774800000000
  0.0013708400000000 -0.0042962200000000 -0.0011536600000000
  0.0109742000000000  0.0002472670000000 -0.0084587800000000
 -0.0046094500000000 -0.0037305400000000 -0.0037734400000000
 -0.0015335900000000 -0.0079873900000000  0.0075871300000000
 -0.0023255500000000 -0.0017607000000000  0.0027744600000000
 -0.0057016700000000  0.0008919430000000  0.0007766520000000
  0.0024487200000000  0.0010380400000000 -0.0029836200000000
 -0.0042811000000000 -0.0063908700000000  0.0009050280000000
 -0.0054024600000000  0.0077426500000000  0.0117268000000000
  0.0007037750000000  0.0065674600000000  0.0103337000000000
 -0.0118481000000000 -0.0047138300000000 -0.0019760600000000
 -0.0053314300000000  0.0022697100000000 -0.0047183600000000
 -0.0015859800000000  0.0048882500000000 -0.0091319300000000
  0.0004724400000000  0.0032567100000000  0.0012491900000000
 -0.0073991000000000  0.0038455400000000 -0.0024194200000000
  0.0013121000000000 -0.0010121900000000 -0.0047878900000000
  0.0002358450000000  0.0042270400000000 -0.0039014000000000
 -0.0037591300000000  0.0025435100000000 -0.0048091700000000
  0.0084335500000000 -0.0022620300000000 -0.0068336900000000
 -0.0046905500000000  0.0071198800000000 -0.0101517000000000
 -0.0019971000000000  0.0107831000000000 -0.0057081500000000
 -0.0064704800000000  0.0053520200000000 -0.0001057080000000
  0.0026720700000000 -0.0013877900000000  0.0092854800000000
 -0.0000809538000000  0.0021034200000000  0.0066213300000000
 -0.0090344000000000 -0.0016790000000000 -0.0121907000000000
  0.0038600100000000  0.0012592200000000 -0.0247734000000000
 -0.0050161400000000  0.0007839270000000  0.0066227300000000
  0.0100002000000000 -0.0096609900000000 -0.0076395400000000
 -0.0021169400000000  0.0000216271000000 -0.0003045350000000
 -0.0021191500000000  0.0019356800000000 -0.0081284100000000
  0.0012546400000000 -0.0038850600000000 -0.0005768010000000
 -0.0051158200000000 -0.0015135100000000  0.0008203140000000
 -0.0031504500000000 -0.0072023200000000  0.0042036700000000
 -0.0027832900000000 -0.0044530600000000 -0.0062277700000000
