N  O  C 
 1.0000000000000000
     9.8654639999999993    0.0000000000000000    0.0000000000000000
    -4.9327329999999998    8.5437419999999999    0.0000000000000000
     0.0000000000000000    0.0000000000000000   26.7272740000000013
 N   O   C  
   1   1  96
Direct
  0.2038487994868917  0.9319464468847491  0.4061544024280216
  0.2938796782072272  0.0653024166694172  0.4001081442125373
  0.9996738951095920  0.0003257471960179  0.0003673101865907
  0.9996743064729685  0.2503259110586439  0.0003672716491775
  0.9996743140319351  0.5003252673126132  0.0003672611729876
  0.9996738931776165  0.7503257940139110  0.0003673083158425
  0.2496747054340223  0.0003257460255705  0.0003673083158425
  0.2496741037455550  0.2503259110586439  0.0003673180437332
  0.2496740160226370  0.5003252673126132  0.0003672720233272
  0.2496747040872707  0.7503257940139110  0.0003672615471372
  0.4996740990074530  0.0003257495369125  0.0003672611729876
  0.4996745092003820  0.2503259110586439  0.0003673086899921
  0.4996745167593484  0.5003252673126132  0.0003673202886310
  0.4996740959050300  0.7503257940139110  0.0003672720233272
  0.7496745044622801  0.0003257495369125  0.0003672716491775
  0.7496739010181415  0.2503259110586439  0.0003672664110826
  0.7496739085771078  0.5003252673126132  0.0003673086899921
  0.7496745013598571  0.7503257940139110  0.0003673180437332
  0.0830075800666932  0.1669924021582112  0.0003612972276933
  0.0830082377222149  0.4169929288595091  0.0003612515814370
  0.0830072316441136  0.6669922851134784  0.0003612691664702
  0.0830078244268629  0.9169928118147763  0.0003613047106862
  0.3330080503942927  0.1669924021582112  0.0003613129419783
  0.3330076295399743  0.4169929288595091  0.0003612968535437
  0.3330075215443150  0.6669922851134784  0.0003612568195320
  0.3330082298816900  0.9169928118147763  0.0003612691664702
  0.5830074422120520  0.1669924021582112  0.0003612687923205
  0.5830080349948014  0.4169929288595091  0.0003613159351754
  0.5830070289167002  0.6669922851134784  0.0003612968535437
  0.5830076216994495  0.9169928118147763  0.0003612515814370
  0.8330078476668792  0.1669924021582112  0.0003612523297363
  0.8330074268125608  0.4169929288595091  0.0003612687923205
  0.8330074343715272  0.6669922851134784  0.0003613129419783
  0.8330080271542766  0.9169928118147763  0.0003612972276933
  0.9225400206961216  0.1405215653749844  0.1266986674361179
  0.9263108387340510  0.3888425001597661  0.1218897220868840
  0.9248147998750451  0.6364295644695264  0.1244025110828736
  0.9300848143900978  0.8885111465210443  0.1235378512601023
  0.1710332661623142  0.1328984419239251  0.1235359805118921
  0.1708316734199786  0.3847213551158263  0.1278211163622598
  0.1755298822650936  0.6372945250453490  0.1203616949487628
  0.1736299848266930  0.8863505007524806  0.1254418987884810
  0.4293795983139483  0.1412987424011633  0.1261000280088422
  0.4239178685939815  0.3897507672867463  0.1253595858672306
  0.4299634345694869  0.6439450067663560  0.1247463546039151
  0.4209310847024041  0.8895797649320404  0.1265396538382478
  0.6755152781475581  0.1362412394943574  0.1241170349059915
  0.6719301250082564  0.3893890990622142  0.1211578853870395
  0.6820492847921453  0.6445864119024194  0.1222788377146132
  0.6721793380079955  0.8921243174243793  0.1225448581101088
  0.0941075126757678  0.2183258810951923  0.1271959123103987
  0.0892854953399027  0.4702915888611805  0.1272539055049161
  0.0961360494594273  0.7207052834694680  0.1228161166005931
  0.0920737691396324  0.9720190520734356  0.1252892457345257
  0.3388106434171625  0.2218454162122405  0.1244122389735669
  0.3364769933765643  0.4681789314330887  0.1253397559362021
  0.3357268601051845  0.7200463216234760  0.1232531233825043
  0.3400402949247009  0.9719734046276211  0.1202906065167738
  0.5905294418110704  0.2209113992440315  0.1268270007633401
  0.5916151282268390  0.4795369523096554  0.1206954364294690
  0.5967958920125710  0.7301121686492874  0.1273115245497914
  0.5869927937979135  0.9702423130286473  0.1232329193018338
  0.8394753445615815  0.2245760698298240  0.1251590416590933
  0.8457336647817123  0.4731018328971077  0.1210744500168629
  0.8417866640093773  0.7254631518601569  0.1238405383205186
  0.8435733923634212  0.9689056621794057  0.1229298580917755
  0.1993116726471438  0.3279476369955928  0.2487275731898435
  0.2038208317357315  0.5748780803540181  0.2480484915895276
  0.1981370054006595  0.0738542900757069  0.2626930827289009
  0.2001219134896686  0.8218213986330579  0.2617670623648338
  0.4446849258934732  0.8156636752373843  0.2531784573316381
  0.4475123111225929  0.0623785221978847  0.2706968918715766
  0.4482677648367765  0.5789325099002287  0.2464284236394628
  0.4469056981011632  0.3249196897565493  0.2524241716532707
  0.9442204353771052  0.3195110526511686  0.2471797161206938
  0.9525396031972209  0.5695291360623952  0.2492510085390676
  0.9483954404637944  0.0718751806878064  0.2492057364323799
  0.9458122172190803  0.8172074952637849  0.2489715187564583
  0.6974877167925176  0.8221912599888901  0.2535634573133048
  0.6967602683332168  0.0645957005724190  0.2507865186700297
  0.6991910188891891  0.5730603756527293  0.2481566208360793
  0.7004781190085009  0.3237539242172809  0.2493643758806080
  0.2856992549060836  0.4909886089725088  0.2432792061023507
  0.2797943535407977  0.7383404133692240  0.2539443416489089
  0.2825126153958686  0.2434366580826060  0.2572159061189704
  0.2738418069219226  0.9835737081012044  0.2692126402415749
  0.5275943992377746  0.9804521250758743  0.2591195794977071
  0.5367288560481157  0.2494457346675497  0.2617794093030213
  0.5304129563211524  0.7379073478576483  0.2466181175079808
  0.5356776579220193  0.4927407686233972  0.2480361446513401
  0.0359385650931480  0.4904361578334177  0.2461032876005237
  0.0351596320364943  0.7350643312965209  0.2517600560386368
  0.0341202581445098  0.2367335062318127  0.2445262468592944
  0.0317287475290283  0.9881091914994624  0.2536921647901690
  0.7813020106929002  0.9842022383166533  0.2472298521727281
  0.7743540720918031  0.2331004377238919  0.2481349201568405
  0.7795041102507392  0.7395412923283499  0.2497650901472406
  0.7840056938878496  0.4941499872070107  0.2430176755025596
Cartesian
  0.0078152900000000  0.0059978700000000  0.0133554000000000
 -0.0129027000000000 -0.0075521400000000  0.0178340000000000
  0.0000000000000000  0.0000000000000000  0.0000000000000000
  0.0000000000000000  0.0000000000000000  0.0000000000000000
  0.0000000000000000  0.0000000000000000  0.0000000000000000
  0.0000000000000000  0.0000000000000000  0.0000000000000000
  0.0000000000000000  0.0000000000000000  0.0000000000000000
  0.0000000000000000  0.0000000000000000  0.0000000000000000
  0.0000000000000000  0.0000000000000000  0.0000000000000000
  0.0000000000000000  0.0000000000000000  0.0000000000000000
  0.0000000000000000  0.0000000000000000  0.0000000000000000
  0.0000000000000000  0.0000000000000000  0.0000000000000000
  0.0000000000000000  0.0000000000000000  0.0000000000000000
  0.0000000000000000  0.0000000000000000  0.0000000000000000
  0.0000000000000000  0.0000000000000000  0.0000000000000000
  0.0000000000000000  0.0000000000000000  0.0000000000000000
  0.0000000000000000  0.0000000000000000  0.0000000000000000
  0.0000000000000000  0.0000000000000000  0.0000000000000000
  0.0000000000000000  0.0000000000000000  0.0000000000000000
  0.0000000000000000  0.0000000000000000  0.0000000000000000
  0.0000000000000000  0.0000000000000000  0.0000000000000000
  0.0000000000000000  0.0000000000000000  0.0000000000000000
  0.0000000000000000  0.0000000000000000  0.0000000000000000
  0.0000000000000000  0.0000000000000000  0.0000000000000000
  0.0000000000000000  0.0000000000000000  0.0000000000000000
  0.0000000000000000  0.0000000000000000  0.0000000000000000
  0.0000000000000000  0.0000000000000000  0.0000000000000000
  0.0000000000000000  0.0000000000000000  0.0000000000000000
  0.0000000000000000  0.0000000000000000  0.0000000000000000
  0.0000000000000000  0.0000000000000000  0.0000000000000000
  0.0000000000000000  0.0000000000000000  0.0000000000000000
  0.0000000000000000  0.0000000000000000  0.0000000000000000
  0.0000000000000000  0.0000000000000000  0.0000000000000000
  0.0000000000000000  0.0000000000000000  0.0000000000000000
 -0.0028250500000000 -0.0051462500000000 -0.0123269000000000
  0.0036123400000000  0.0027505500000000 -0.0030602400000000
  0.0097669900000000 -0.0072069200000000 -0.0147591000000000
 -0.0034093400000000 -0.0031850500000000 -0.0058018800000000
 -0.0087703300000000 -0.0054841900000000  0.0056776700000000
 -0.0077861900000000  0.0042001400000000 -0.0067684900000000
 -0.0076805800000000 -0.0017541400000000  0.0031897000000000
 -0.0020934800000000 -0.0092214500000000  0.0166235000000000
  0.0023659100000000  0.0014046500000000  0.0037484100000000
 -0.0047124200000000 -0.0090971700000000 -0.0077381600000000
 -0.0084398200000000  0.0012847000000000  0.0014331300000000
 -0.0001457540000000 -0.0159837000000000 -0.0086272000000000
  0.0082680900000000  0.0105443000000000 -0.0131735000000000
 -0.0029573400000000 -0.0145107000000000  0.0020108700000000
 -0.0101067000000000  0.0031775700000000 -0.0021794600000000
 -0.0027767400000000 -0.0035113500000000 -0.0171095000000000
 -0.0125049000000000  0.0056234300000000 -0.0076698800000000
 -0.0036519700000000 -0.0005399440000000 -0.0032989400000000
 -0.0004447860000000  0.0012745100000000  0.0065992600000000
  0.0127786000000000 -0.0027110200000000  0.0008091310000000
  0.0057271600000000  0.0026917300000000  0.0132802000000000
  0.0009218850000000 -0.0038571400000000 -0.0042540700000000
 -0.0035836400000000 -0.0002317460000000 -0.0015646000000000
 -0.0057742200000000 -0.0065519900000000 -0.0043988500000000
 -0.0018543600000000 -0.0052169100000000 -0.0143942000000000
  0.0007083360000000 -0.0004534690000000 -0.0045459900000000
  0.0003145680000000 -0.0118098000000000 -0.0100127000000000
  0.0090192500000000  0.0001351300000000  0.0014872500000000
  0.0114435000000000 -0.0066921200000000  0.0009268070000000
  0.0028862400000000 -0.0010079900000000 -0.0049025900000000
 -0.0108990000000000  0.0024721900000000 -0.0003301490000000
 -0.0053075800000000 -0.0016871000000000 -0.0030943500000000
  0.0002320070000000  0.0120583000000000 -0.0109399000000000
  0.0014214100000000  0.0114537000000000 -0.0031210600000000
  0.0034319600000000  0.0012242000000000  0.0071696600000000
 -0.0005764880000000 -0.0002652980000000 -0.0054568500000000
 -0.0036832600000000 -0.0054053900000000  0.0036499200000000
  0.0043755800000000  0.0086926600000000 -0.0062802600000000
 -0.0026990400000000 -0.0002489200000000 -0.0051010200000000
 -0.0049877200000000 -0.0027223100000000 -0.0036023400000000
 -0.0053332000000000  0.0119442000000000 -0.0010936000000000
  0.0118258000000000 -0.0070161300000000 -0.0014118300000000
 -0.0034477300000000 -0.0052058700000000  0.0027242800000000
 -0.0095109200000000  0.0049036700000000  0.0035778700000000
  0.0109497000000000  0.0007536200000000  0.0066810000000000
 -0.0030816600000000 -0.0014053500000000  0.0102169000000000
 -0.0030584300000000 -0.0074361000000000 -0.0084683200000000
  0.0109700000000000 -0.0027618100000000  0.0137352000000000
  0.0051096300000000  0.0008280750000000  0.0049753400000000
 -0.0076400200000000  0.0024684900000000  0.0067049400000000
 -0.0040442200000000  0.0013795000000000  0.0041611800000000
  0.0092450500000000 -0.0065760900000000 -0.0049468800000000
 -0.0072217400000000  0.0002849020000000 -0.0092786100000000
  0.0013360800000000 -0.0000852009000000 -0.0080087800000000
  0.0040164200000000 -0.0030361400000000  0.0083450900000000
  0.0014813800000000  0.0033501000000000  0.0153082000000000
 -0.0043666000000000  0.0060642100000000 -0.0136412000000000
  0.0021388800000000 -0.0005997580000000 -0.0008299020000000
 -0.0013770500000000 -0.0073783400000000 -0.0057479400000000
 -0.0041433000000000  0.0046564200000000 -0.0025706000000000
 -0.0058736000000000  0.0110605000000000 -0.0087912100000000
  0.0046448700000000  0.0023369600000000 -0.0191968000000000
 -0.0022219800000000  0.0069858000000000  0.0057201300000000
 -0.0073974400000000 -0.0029893300000000  0.0030594800000000
