N  O  C 
 1.0000000000000000
     9.8654639999999993    0.0000000000000000    0.0000000000000000
    -4.9327329999999998    8.5437419999999999    0.0000000000000000
     0.0000000000000000    0.0000000000000000   26.7272740000000013
 N   O   C  
   1   1  96
Direct
  0.5198026460640985  0.1669853794742397  0.3375132832476668
  0.4625094222364807  0.2338764443027423  0.3559064796507118
  0.9996738951095920  0.0003257471960179  0.0003673101865907
  0.9996743064729685  0.2503259110586439  0.0003672716491775
  0.9996743140319351  0.5003252673126132  0.0003672611729876
  0.9996738931776165  0.7503257940139110  0.0003673083158425
  0.2496747054340223  0.0003257460255705  0.0003673083158425
  0.2496741037455550  0.2503259110586439  0.0003673180437332
  0.2496740160226370  0.5003252673126132  0.0003672720233272
  0.2496747040872707  0.7503257940139110  0.0003672615471372
  0.4996740990074530  0.0003257495369125  0.0003672611729876
  0.4996745092003820  0.2503259110586439  0.0003673086899921
  0.4996745167593484  0.5003252673126132  0.0003673202886310
  0.4996740959050300  0.7503257940139110  0.0003672720233272
  0.7496745044622801  0.0003257495369125  0.0003672716491775
  0.7496739010181415  0.2503259110586439  0.0003672664110826
  0.7496739085771078  0.5003252673126132  0.0003673086899921
  0.7496745013598571  0.7503257940139110  0.0003673180437332
  0.0830075800666932  0.1669924021582112  0.0003612972276933
  0.0830082377222149  0.4169929288595091  0.0003612515814370
  0.0830072316441136  0.6669922851134784  0.0003612691664702
  0.0830078244268629  0.9169928118147763  0.0003613047106862
  0.3330080503942927  0.1669924021582112  0.0003613129419783
  0.3330076295399743  0.4169929288595091  0.0003612968535437
  0.3330075215443150  0.6669922851134784  0.0003612568195320
  0.3330082298816900  0.9169928118147763  0.0003612691664702
  0.5830074422120520  0.1669924021582112  0.0003612687923205
  0.5830080349948014  0.4169929288595091  0.0003613159351754
  0.5830070289167002  0.6669922851134784  0.0003612968535437
  0.5830076216994495  0.9169928118147763  0.0003612515814370
  0.8330078476668792  0.1669924021582112  0.0003612523297363
  0.8330074268125608  0.4169929288595091  0.0003612687923205
  0.8330074343715272  0.6669922851134784  0.0003613129419783
  0.8330080271542766  0.9169928118147763  0.0003612972276933
  0.1787796293217527  0.3378531327373884  0.1386583607441597
  0.1732416849756435  0.5899183285263062  0.1403420341333725
  0.1822792849412170  0.8420361944450102  0.1309493815194172
  0.1717373716326694  0.0897552852134346  0.1286262863919455
  0.4249830444240423  0.3361290638223860  0.1322218644520201
  0.4263699509253223  0.5874182530324534  0.1384024423889993
  0.4319596418489840  0.8427618717887314  0.1343264561885361
  0.4222844742480246  0.0874793503830055  0.1302280210095500
  0.6700181001649684  0.3384207996917510  0.1325009800849873
  0.6688530684088639  0.5839431949138914  0.1312457080359187
  0.6790499962704545  0.8367984426496026  0.1387541430525238
  0.6788774467629592  0.0955070974755558  0.1280362524064370
  0.9200500167693987  0.3350780021213188  0.1332874426325708
  0.9308950108546219  0.5917290105436236  0.1299601298658442
  0.9230951865115210  0.8343229465496500  0.1284003000081490
  0.9252264409734871  0.0948800888416340  0.1333970684776906
  0.3437599844129285  0.4187965881928551  0.1361631567813463
  0.3443836455852795  0.6709811696092883  0.1425932925295711
  0.3453855900252626  0.9254036463179717  0.1343605038059624
  0.3324133941238546  0.1690933551130172  0.1296297557319164
  0.5886978258761494  0.4195538676144481  0.1318608100474444
  0.5962750888662026  0.6732576896633817  0.1365159798937969
  0.5965503430366133  0.9270633406299019  0.1340866262679838
  0.5865899049903752  0.1727767528560671  0.1229803682934519
  0.8423814033200078  0.4215682074669390  0.1298213203486446
  0.8426543812171943  0.6672216927898806  0.1284755040862005
  0.8419521609219217  0.9192974226047557  0.1334543133729238
  0.8418471375325635  0.1735878728547749  0.1313897556481069
  0.0909923263237663  0.4237897164965890  0.1351245173750230
  0.0926474975153899  0.6741355251598188  0.1330442453652400
  0.0902641758093490  0.9187742326488793  0.1294086332934664
  0.0897484555651008  0.1693988418657773  0.1372429526482948
  0.6327166109323311  1.0053580737807861  0.2529588314917564
  0.6322616961032241  0.2546144300705709  0.2437869271666089
  0.6337323595647869  0.7537107276881723  0.2653469261399423
  0.6303917078697437  0.5056905978668363  0.2554963143641211
  0.8838891672702867  0.5059176646485813  0.2536611103698791
  0.8844568293824404  0.7522781001579870  0.2640564840245211
  0.8795829687158501  0.2516321302773422  0.2553638653908363
  0.8843854058737053  0.0097861335232267  0.2662736948032934
  0.3787958021209957  1.0041829446628889  0.2417665190995535
  0.3747687184253310  0.2617752268268401  0.2489816207967936
  0.3855671512184471  0.7530096297383512  0.2575623686875063
  0.3767045315713021  0.5046968880848697  0.2677860076564486
  0.1296433977248119  0.4998430430132371  0.2646424023639672
  0.1329935996517903  0.7529159939520645  0.2546518586220203
  0.1272861230895510  0.2603940989791125  0.2647542731069394
  0.1331581395535338  0.0096876989028929  0.2497527432090531
  0.7176367162111112  0.1714869198999689  0.2436870292121823
  0.7146608157054866  0.4236293652125732  0.2463060767065134
  0.7123123576760987  0.9184851321587192  0.2651243071029242
  0.7117079599418302  0.6660910406704696  0.2697476742297026
  0.9671489306188099  0.6715289389590651  0.2620181167746475
  0.9670760883995084  0.9245187881375632  0.2648784907880991
  0.9695791118540616  0.4226719392977925  0.2552512463485801
  0.9625364956037586  0.1721072569841177  0.2622762800276601
  0.4611398172154961  0.1722875058727195  0.2387871654999309
  0.4645289817560528  0.4290895020004116  0.2593163822094240
  0.4671325735834734  0.9201740876538641  0.2482748521229662
  0.4631970464822009  0.6688064784727816  0.2709026741747026
  0.2164025979323926  0.6656942590260801  0.2621520623465005
  0.2162072091315136  0.9213866710862758  0.2477907024861570
  0.2126602721421232  0.4226438485619065  0.2694184225447010
  0.2119562130313087  0.1765139911762317  0.2571156340149018
Cartesian
  0.0014456700000000  0.0064832400000000  0.0122979000000000
 -0.0139368000000000  0.0088447200000000  0.0195581000000000
  0.0000000000000000  0.0000000000000000  0.0000000000000000
  0.0000000000000000  0.0000000000000000  0.0000000000000000
  0.0000000000000000  0.0000000000000000  0.0000000000000000
  0.0000000000000000  0.0000000000000000  0.0000000000000000
  0.0000000000000000  0.0000000000000000  0.0000000000000000
  0.0000000000000000  0.0000000000000000  0.0000000000000000
  0.0000000000000000  0.0000000000000000  0.0000000000000000
  0.0000000000000000  0.0000000000000000  0.0000000000000000
  0.0000000000000000  0.0000000000000000  0.0000000000000000
  0.0000000000000000  0.0000000000000000  0.0000000000000000
  0.0000000000000000  0.0000000000000000  0.0000000000000000
  0.0000000000000000  0.0000000000000000  0.0000000000000000
  0.0000000000000000  0.0000000000000000  0.0000000000000000
  0.0000000000000000  0.0000000000000000  0.0000000000000000
  0.0000000000000000  0.0000000000000000  0.0000000000000000
  0.0000000000000000  0.0000000000000000  0.0000000000000000
  0.0000000000000000  0.0000000000000000  0.0000000000000000
  0.0000000000000000  0.0000000000000000  0.0000000000000000
  0.0000000000000000  0.0000000000000000  0.0000000000000000
  0.0000000000000000  0.0000000000000000  0.0000000000000000
  0.0000000000000000  0.0000000000000000  0.0000000000000000
  0.0000000000000000  0.0000000000000000  0.0000000000000000
  0.0000000000000000  0.0000000000000000  0.0000000000000000
  0.0000000000000000  0.0000000000000000  0.0000000000000000
  0.0000000000000000  0.0000000000000000  0.0000000000000000
  0.0000000000000000  0.0000000000000000  0.0000000000000000
  0.0000000000000000  0.0000000000000000  0.0000000000000000
  0.0000000000000000  0.0000000000000000  0.0000000000000000
  0.0000000000000000  0.0000000000000000  0.0000000000000000
  0.0000000000000000  0.0000000000000000  0.0000000000000000
  0.0000000000000000  0.0000000000000000  0.0000000000000000
  0.0000000000000000  0.0000000000000000  0.0000000000000000
  0.0077615600000000 -0.0045075200000000 -0.0057453700000000
 -0.0136210000000000 -0.0099858700000000  0.0003948900000000
 -0.0095406000000000 -0.0073502900000000 -0.0019363200000000
  0.0067899400000000  0.0080673400000000 -0.0009725070000000
 -0.0043578200000000 -0.0008562710000000  0.0094857300000000
 -0.0043193500000000  0.0003268080000000  0.0004860970000000
 -0.0004923900000000  0.0013787700000000 -0.0035743800000000
 -0.0059781300000000 -0.0012446300000000 -0.0010043200000000
  0.0014102400000000  0.0058171900000000 -0.0106507000000000
 -0.0021482800000000 -0.0063418100000000  0.0075993400000000
 -0.0025009200000000  0.0002327970000000 -0.0128412000000000
 -0.0071824300000000 -0.0011471800000000 -0.0131973000000000
 -0.0068577500000000 -0.0092625900000000 -0.0021797100000000
 -0.0091180600000000  0.0103050000000000 -0.0066127500000000
 -0.0024256800000000 -0.0072887000000000  0.0040051100000000
 -0.0084633600000000  0.0009898720000000  0.0053647100000000
  0.0141824000000000 -0.0014125800000000 -0.0012591100000000
  0.0050867800000000 -0.0036799600000000 -0.0061220800000000
  0.0058443200000000  0.0022944300000000 -0.0042608800000000
 -0.0014050600000000  0.0006605040000000  0.0024600400000000
 -0.0017793200000000  0.0068580100000000  0.0065722000000000
  0.0023988100000000 -0.0029147800000000 -0.0043152200000000
 -0.0022742700000000 -0.0017617700000000  0.0049269000000000
  0.0049600700000000 -0.0072328300000000 -0.0032561400000000
  0.0034875700000000  0.0001700790000000  0.0011160600000000
 -0.0004760420000000 -0.0026880900000000  0.0031716500000000
  0.0108373000000000  0.0035422500000000  0.0133453000000000
  0.0006460670000000  0.0093823600000000 -0.0009008110000000
 -0.0099598200000000  0.0060182800000000 -0.0039364300000000
 -0.0005682800000000  0.0031591000000000 -0.0010560500000000
 -0.0156191000000000  0.0000898562000000  0.0111613000000000
  0.0069569200000000 -0.0067371400000000  0.0142248000000000
 -0.0062966100000000  0.0043286100000000  0.0144497000000000
  0.0044707500000000  0.0001565820000000 -0.0064266700000000
  0.0112527000000000 -0.0016196400000000 -0.0022615100000000
 -0.0051546200000000  0.0069425100000000 -0.0108921000000000
  0.0115377000000000 -0.0029331800000000  0.0108121000000000
 -0.0053397900000000  0.0049909100000000  0.0063822700000000
  0.0013155800000000  0.0059586000000000 -0.0049174200000000
  0.0017055600000000  0.0006401660000000 -0.0111420000000000
 -0.0027562500000000 -0.0027012500000000  0.0065686300000000
 -0.0094134400000000 -0.0037868100000000  0.0119345000000000
 -0.0039471700000000  0.0076283300000000 -0.0056955600000000
 -0.0059015200000000  0.0024847600000000 -0.0025399400000000
  0.0012794100000000 -0.0111831000000000  0.0022951000000000
  0.0014565200000000 -0.0015019400000000  0.0010576200000000
 -0.0043430500000000  0.0031917000000000 -0.0030196400000000
 -0.0024695600000000 -0.0056019400000000 -0.0029772500000000
  0.0112541000000000  0.0017584500000000  0.0053129700000000
 -0.0045186700000000 -0.0023821100000000 -0.0033703600000000
 -0.0061038000000000 -0.0017320000000000 -0.0089527100000000
 -0.0043510600000000  0.0028832400000000 -0.0028607100000000
  0.0022035300000000  0.0007656750000000 -0.0140480000000000
  0.0058785200000000  0.0078437300000000  0.0029868200000000
 -0.0018381100000000  0.0069515400000000 -0.0090598100000000
 -0.0035894900000000  0.0076552000000000  0.0033688000000000
 -0.0051551500000000 -0.0020452600000000  0.0023390400000000
  0.0062530400000000 -0.0040349200000000 -0.0086731000000000
 -0.0007686350000000 -0.0071665800000000 -0.0092866800000000
 -0.0028687200000000  0.0090492800000000  0.0005450390000000
  0.0004853470000000  0.0022934100000000  0.0092158200000000
 -0.0021824000000000 -0.0000659475000000 -0.0072439900000000
  0.0050042400000000 -0.0023739600000000 -0.0045371900000000
 -0.0032647700000000 -0.0002859320000000 -0.0142673000000000
