N  O  C 
 1.0000000000000000
     9.8654639999999993    0.0000000000000000    0.0000000000000000
    -4.9327329999999998    8.5437419999999999    0.0000000000000000
     0.0000000000000000    0.0000000000000000   26.7272740000000013
 N   O   C  
   1   1  96
Direct
  0.5714719253115556  0.7547653007312253  0.4897469154542285
  0.5305216607441909  0.8198948423302108  0.4631411344082453
  0.9996738951095920  0.0003257471960179  0.0003673101865907
  0.9996743064729685  0.2503259110586439  0.0003672716491775
  0.9996743140319351  0.5003252673126132  0.0003672611729876
  0.9996738931776165  0.7503257940139110  0.0003673083158425
  0.2496747054340223  0.0003257460255705  0.0003673083158425
  0.2496741037455550  0.2503259110586439  0.0003673180437332
  0.2496740160226370  0.5003252673126132  0.0003672720233272
  0.2496747040872707  0.7503257940139110  0.0003672615471372
  0.4996740990074530  0.0003257495369125  0.0003672611729876
  0.4996745092003820  0.2503259110586439  0.0003673086899921
  0.4996745167593484  0.5003252673126132  0.0003673202886310
  0.4996740959050300  0.7503257940139110  0.0003672720233272
  0.7496745044622801  0.0003257495369125  0.0003672716491775
  0.7496739010181415  0.2503259110586439  0.0003672664110826
  0.7496739085771078  0.5003252673126132  0.0003673086899921
  0.7496745013598571  0.7503257940139110  0.0003673180437332
  0.0830075800666932  0.1669924021582112  0.0003612972276933
  0.0830082377222149  0.4169929288595091  0.0003612515814370
  0.0830072316441136  0.6669922851134784  0.0003612691664702
  0.0830078244268629  0.9169928118147763  0.0003613047106862
  0.3330080503942927  0.1669924021582112  0.0003613129419783
  0.3330076295399743  0.4169929288595091  0.0003612968535437
  0.3330075215443150  0.6669922851134784  0.0003612568195320
  0.3330082298816900  0.9169928118147763  0.0003612691664702
  0.5830074422120520  0.1669924021582112  0.0003612687923205
  0.5830080349948014  0.4169929288595091  0.0003613159351754
  0.5830070289167002  0.6669922851134784  0.0003612968535437
  0.5830076216994495  0.9169928118147763  0.0003612515814370
  0.8330078476668792  0.1669924021582112  0.0003612523297363
  0.8330074268125608  0.4169929288595091  0.0003612687923205
  0.8330074343715272  0.6669922851134784  0.0003613129419783
  0.8330080271542766  0.9169928118147763  0.0003612972276933
  0.9757975602765193  0.2110890052625653  0.1264270347959915
  0.9767927493448716  0.4610473958600342  0.1209962527416751
  0.9752875820552406  0.7154663612267318  0.1233234635152092
  0.9880429055736648  0.9728910353332298  0.1187928854996585
  0.2313822755235263  0.2160715995403419  0.1214235316328931
  0.2325367440641976  0.4660018994019248  0.1172034978202416
  0.2266012769604190  0.7113311708148490  0.1201323412181878
  0.2293153522893249  0.9674823982278491  0.1270615925889038
  0.4749968458442171  0.2174421933621123  0.1203736677373083
  0.4869432588926461  0.4679436715200436  0.1141010489883854
  0.4787353429226423  0.7151058634495283  0.1115560831231797
  0.4827010383339035  0.9707971050623955  0.1185201304106060
  0.7271458187595198  0.2222035730947868  0.1250924430228088
  0.7278713968829242  0.4665180666738298  0.1235501981982899
  0.7323839537942737  0.7162880152513970  0.1145934299173197
  0.7290297873535715  0.9656284096593741  0.1199561167367836
  0.1451275477218090  0.2970665546782663  0.1181074433554279
  0.1423159606709422  0.5463893923763148  0.1199037357868969
  0.1455690103026006  0.7939869907120323  0.1255900620467317
  0.1473253937234700  0.0483268338393177  0.1258396198579773
  0.3939928774058449  0.3016629013376106  0.1221688377198513
  0.4017502135403409  0.5464034377442577  0.1115355048928671
  0.3900275783882183  0.7990316186982238  0.1179372052682964
  0.3952119248682245  0.0488733156970330  0.1260308103250634
  0.6410530795618281  0.2986267609672670  0.1258512184968807
  0.6471747086110535  0.5519817897122830  0.1135787360880874
  0.6520616731774105  0.8005543706727100  0.1142604367358976
  0.6496633745939776  0.0586917301575820  0.1191846201748820
  0.8959242450227159  0.3007335661587159  0.1251856062836786
  0.8879041400544005  0.5395095029789054  0.1243418988408620
  0.8993177181881058  0.8034605913895808  0.1170815250369342
  0.8909960056709143  0.0435537496333574  0.1244208444153339
  0.2110976313667327  0.2991124966086289  0.2582350897439073
  0.2081701849871689  0.5399893863836244  0.2504101241301301
  0.2149725775769229  0.0420302953904741  0.2608159739747495
  0.2124064373786399  0.7950193252558423  0.2505631513337275
  0.4567739252623075  0.7882670146172486  0.2343198187738862
  0.4604117218997922  0.0444226897300972  0.2517817567178756
  0.4616599615039754  0.5438120673587755  0.2400450565964939
  0.4612540728998752  0.2907648662611769  0.2546690695055545
  0.9644155380016397  0.2946027630515997  0.2611100555933987
  0.9630367474573097  0.5461342348586837  0.2579241713913660
  0.9560784346880682  0.0364680955955833  0.2513260424538619
  0.9654069053011783  0.7979079892627844  0.2477113827620430
  0.7140971016903621  0.7963981122089127  0.2332246827716138
  0.7166330415192759  0.0440257910409748  0.2471321991161538
  0.7169286038973662  0.5512245102906900  0.2478565528231574
  0.7118258010347472  0.2898741558441255  0.2562416204510793
  0.2960690807324735  0.4662090685790840  0.2466521651254071
  0.2891431159628907  0.7061776912270994  0.2433095122233566
  0.2897090286395789  0.2139917146374504  0.2554080150485979
  0.3009290078315471  0.9623254072981136  0.2530317906719556
  0.5452585535921841  0.9598897064073331  0.2418293762394175
  0.5515844617495397  0.2170372185864227  0.2523276410456226
  0.5479430658844172  0.7124068119098166  0.2337739344461392
  0.5450328894765515  0.4555146913378236  0.2436784237704152
  0.0484998981332207  0.4606014554278441  0.2592112461600087
  0.0496155176641992  0.7123576531220160  0.2518876410665749
  0.0473924123581004  0.2121564532262327  0.2579114503035364
  0.0479973918370792  0.9614662989589340  0.2540827770164664
  0.7970009801245602  0.9591101884864970  0.2428242401376212
  0.7960816476048672  0.2023188434294950  0.2615328446889121
  0.7985375861550115  0.7084214387559924  0.2366754649202160
  0.7986810493575386  0.4621148438237016  0.2539241375682383
Cartesian
  0.0071498300000000 -0.0018147000000000  0.0210609000000000
 -0.0120167000000000  0.0049641400000000  0.0152237000000000
  0.0000000000000000  0.0000000000000000  0.0000000000000000
  0.0000000000000000  0.0000000000000000  0.0000000000000000
  0.0000000000000000  0.0000000000000000  0.0000000000000000
  0.0000000000000000  0.0000000000000000  0.0000000000000000
  0.0000000000000000  0.0000000000000000  0.0000000000000000
  0.0000000000000000  0.0000000000000000  0.0000000000000000
  0.0000000000000000  0.0000000000000000  0.0000000000000000
  0.0000000000000000  0.0000000000000000  0.0000000000000000
  0.0000000000000000  0.0000000000000000  0.0000000000000000
  0.0000000000000000  0.0000000000000000  0.0000000000000000
  0.0000000000000000  0.0000000000000000  0.0000000000000000
  0.0000000000000000  0.0000000000000000  0.0000000000000000
  0.0000000000000000  0.0000000000000000  0.0000000000000000
  0.0000000000000000  0.0000000000000000  0.0000000000000000
  0.0000000000000000  0.0000000000000000  0.0000000000000000
  0.0000000000000000  0.0000000000000000  0.0000000000000000
  0.0000000000000000  0.0000000000000000  0.0000000000000000
  0.0000000000000000  0.0000000000000000  0.0000000000000000
  0.0000000000000000  0.0000000000000000  0.0000000000000000
  0.0000000000000000  0.0000000000000000  0.0000000000000000
  0.0000000000000000  0.0000000000000000  0.0000000000000000
  0.0000000000000000  0.0000000000000000  0.0000000000000000
  0.0000000000000000  0.0000000000000000  0.0000000000000000
  0.0000000000000000  0.0000000000000000  0.0000000000000000
  0.0000000000000000  0.0000000000000000  0.0000000000000000
  0.0000000000000000  0.0000000000000000  0.0000000000000000
  0.0000000000000000  0.0000000000000000  0.0000000000000000
  0.0000000000000000  0.0000000000000000  0.0000000000000000
  0.0000000000000000  0.0000000000000000  0.0000000000000000
  0.0000000000000000  0.0000000000000000  0.0000000000000000
  0.0000000000000000  0.0000000000000000  0.0000000000000000
  0.0000000000000000  0.0000000000000000  0.0000000000000000
 -0.0041209900000000 -0.0138617000000000  0.0184369000000000
  0.0000812241000000 -0.0099193100000000  0.0072701400000000
 -0.0009612070000000 -0.0074071400000000 -0.0110417000000000
 -0.0052501400000000  0.0037171900000000  0.0045061800000000
 -0.0006249860000000 -0.0038498000000000  0.0020074000000000
 -0.0084642400000000  0.0029098600000000 -0.0025364000000000
 -0.0022208500000000  0.0023380700000000  0.0015168400000000
 -0.0083921900000000 -0.0096176500000000 -0.0032199600000000
  0.0037903100000000  0.0000110599000000  0.0004514900000000
 -0.0014349500000000 -0.0088171000000000 -0.0131142000000000
 -0.0062869400000000  0.0034097900000000 -0.0049996700000000
  0.0026881500000000  0.0017260200000000  0.0057303000000000
 -0.0059823100000000  0.0037425900000000  0.0163668000000000
  0.0020914500000000 -0.0052308000000000 -0.0010005300000000
  0.0016250900000000 -0.0011787400000000  0.0093441800000000
  0.0055725500000000 -0.0050923800000000 -0.0002273530000000
  0.0042852800000000 -0.0034093800000000  0.0021370200000000
  0.0031507000000000 -0.0053496500000000  0.0018756200000000
  0.0099948600000000  0.0045681800000000  0.0053755100000000
  0.0074666800000000 -0.0041964500000000 -0.0033972000000000
 -0.0051223900000000  0.0005017480000000  0.0045540400000000
  0.0010384400000000 -0.0077219800000000  0.0057117000000000
 -0.0141888000000000 -0.0052139400000000 -0.0027817400000000
 -0.0048800500000000 -0.0121659000000000  0.0056028500000000
 -0.0021436100000000 -0.0029216500000000  0.0062456800000000
 -0.0012715000000000  0.0206515000000000 -0.0020572800000000
 -0.0001455440000000  0.0066443700000000 -0.0014426300000000
  0.0031804000000000  0.0043982900000000  0.0150099000000000
  0.0088539000000000 -0.0070730700000000 -0.0008137870000000
 -0.0048498000000000  0.0016872900000000  0.0081437100000000
 -0.0008804060000000 -0.0005281700000000  0.0028423800000000
 -0.0029070000000000 -0.0027648700000000  0.0060284800000000
 -0.0081648400000000  0.0110616000000000  0.0031270500000000
  0.0007839380000000  0.0020608100000000  0.0217308000000000
 -0.0042578900000000  0.0002899600000000 -0.0054434000000000
  0.0067169600000000 -0.0061606900000000  0.0005599780000000
  0.0022116800000000  0.0007690080000000  0.0021121300000000
  0.0013733100000000  0.0006548060000000 -0.0036916100000000
 -0.0033848200000000  0.0067207700000000  0.0063985200000000
  0.0006831600000000  0.0030399400000000  0.0015290300000000
  0.0072686200000000 -0.0012362500000000 -0.0017992000000000
  0.0027132600000000 -0.0028821500000000 -0.0009464750000000
 -0.0035971000000000  0.0051137800000000 -0.0066591600000000
  0.0001487220000000  0.0002656500000000  0.0063949500000000
 -0.0099140700000000  0.0006029570000000 -0.0030492100000000
  0.0123794000000000 -0.0053467800000000 -0.0031702000000000
 -0.0030168900000000  0.0106252000000000  0.0015258200000000
 -0.0020400500000000 -0.0055718600000000 -0.0056564000000000
  0.0001767060000000 -0.0006639950000000 -0.0066270800000000
 -0.0037807400000000 -0.0095927100000000 -0.0065046400000000
 -0.0069845500000000  0.0031778700000000 -0.0013519100000000
  0.0004907740000000 -0.0057112800000000  0.0067268600000000
 -0.0102388000000000  0.0028330800000000  0.0099101500000000
 -0.0021816900000000  0.0024765100000000  0.0062787200000000
  0.0064248600000000 -0.0035355800000000 -0.0081515300000000
 -0.0009247740000000  0.0103649000000000 -0.0094441300000000
  0.0055331900000000 -0.0023112200000000  0.0024553100000000
 -0.0075795500000000  0.0035006500000000  0.0032636200000000
  0.0103939000000000  0.0019587100000000  0.0102892000000000
 -0.0015950200000000  0.0022308500000000 -0.0088437400000000
 -0.0030468700000000 -0.0151377000000000  0.0044541100000000
 -0.0075555000000000  0.0015450600000000  0.0107550000000000
 -0.0075675700000000 -0.0034851900000000  0.0042746200000000
 -0.0026912600000000  0.0084816200000000 -0.0068620500000000
