N  O  C 
 1.0000000000000000
     9.8654639999999993    0.0000000000000000    0.0000000000000000
    -4.9327329999999998    8.5437419999999999    0.0000000000000000
     0.0000000000000000    0.0000000000000000   26.7272740000000013
 N   O   C  
   1   1  96
Direct
  0.5362307635202700  0.7383240271066237  0.3501438268638994
  0.6397069556260532  0.7540922935172902  0.3277715490176813
  0.9996738951095920  0.0003257471960179  0.0003673101865907
  0.9996743064729685  0.2503259110586439  0.0003672716491775
  0.9996743140319351  0.5003252673126132  0.0003672611729876
  0.9996738931776165  0.7503257940139110  0.0003673083158425
  0.2496747054340223  0.0003257460255705  0.0003673083158425
  0.2496741037455550  0.2503259110586439  0.0003673180437332
  0.2496740160226370  0.5003252673126132  0.0003672720233272
  0.2496747040872707  0.7503257940139110  0.0003672615471372
  0.4996740990074530  0.0003257495369125  0.0003672611729876
  0.4996745092003820  0.2503259110586439  0.0003673086899921
  0.4996745167593484  0.5003252673126132  0.0003673202886310
  0.4996740959050300  0.7503257940139110  0.0003672720233272
  0.7496745044622801  0.0003257495369125  0.0003672716491775
  0.7496739010181415  0.2503259110586439  0.0003672664110826
  0.7496739085771078  0.5003252673126132  0.0003673086899921
  0.7496745013598571  0.7503257940139110  0.0003673180437332
  0.0830075800666932  0.1669924021582112  0.0003612972276933
  0.0830082377222149  0.4169929288595091  0.0003612515814370
  0.0830072316441136  0.6669922851134784  0.0003612691664702
  0.0830078244268629  0.9169928118147763  0.0003613047106862
  0.3330080503942927  0.1669924021582112  0.0003613129419783
  0.3330076295399743  0.4169929288595091  0.0003612968535437
  0.3330075215443150  0.6669922851134784  0.0003612568195320
  0.3330082298816900  0.9169928118147763  0.0003612691664702
  0.5830074422120520  0.1669924021582112  0.0003612687923205
  0.5830080349948014  0.4169929288595091  0.0003613159351754
  0.5830070289167002  0.6669922851134784  0.0003612968535437
  0.5830076216994495  0.9169928118147763  0.0003612515814370
  0.8330078476668792  0.1669924021582112  0.0003612523297363
  0.8330074268125608  0.4169929288595091  0.0003612687923205
  0.8330074343715272  0.6669922851134784  0.0003613129419783
  0.8330080271542766  0.9169928118147763  0.0003612972276933
  0.0184773285702643  0.2594905136414466  0.1270305381686138
  0.0146191981944871  0.5135946286767554  0.1284676469437175
  0.0163479446836120  0.7665973527758680  0.1293682251321253
  0.0198341762012135  0.0135063769481803  0.1272931912173310
  0.2630062367621304  0.2626472100866342  0.1303062182847379
  0.2617617426500881  0.5137900933806288  0.1261381912723310
  0.2606462947218547  0.7598661101891887  0.1273740075400132
  0.2659499752538700  0.0153018431502262  0.1292398918049031
  0.5072813424200913  0.2596848078979913  0.1262291096353485
  0.5157971219652925  0.5178281366642392  0.1242689396606627
  0.5159808572853291  0.7701086947616161  0.1190473072562507
  0.5189006070597100  0.0182424750185574  0.1250086335029902
  0.7676357944656238  0.2645761072841386  0.1291934972492892
  0.7678691676640788  0.5184601782216739  0.1244612525766750
  0.7709038460158607  0.7730874832128592  0.1237492458078591
  0.7681687828425156  0.0227361734471851  0.1173905726412652
  0.1863061903859359  0.3455078582663194  0.1264030892189005
  0.1760327610463785  0.5918858504856537  0.1274540755634114
  0.1756933743228324  0.8421450460465684  0.1299530210226452
  0.1881946864359777  0.1017139796590300  0.1315932930533806
  0.4238077313159707  0.3425524787616480  0.1292705720755510
  0.4282899327611370  0.5994200199397407  0.1240706403503777
  0.4280012666895048  0.8511598313713126  0.1228325791848432
  0.4318268691921235  0.0925252658612584  0.1290030550814872
  0.6883506841451208  0.3535441496243683  0.1280164224754085
  0.6870053215173124  0.6065960325112814  0.1219525792267479
  0.6841248051720786  0.8539583709339538  0.1199508786417949
  0.6798088227983887  0.1054606986025561  0.1221475111902546
  0.9271284280067364  0.3427374094395640  0.1242797900002821
  0.9288585740836938  0.5968883423680162  0.1286521027172468
  0.9361978710145542  0.8536599068651652  0.1253835314443216
  0.9293561710593569  0.0896054679553760  0.1224558104953015
  0.2308519685092956  0.2878434297290344  0.2564219605785461
  0.2384515978850130  0.5317822097156023  0.2469249202144596
  0.2354737005677109  0.0351341367751976  0.2552957701559838
  0.2250538774901507  0.7753675146089383  0.2460336957671029
  0.4822465971530774  0.7774473995118298  0.2350744786018956
  0.4816487760275939  0.0284971151984692  0.2480701922687663
  0.4844145863847827  0.5335753350229910  0.2346247507321547
  0.4798723939611588  0.2896880547188808  0.2522730151978836
  0.9849325023917687  0.2757854813499752  0.2585048516358234
  0.9727368675133974  0.5308680903519792  0.2549526749342264
  0.9793839086508359  0.0290116438441142  0.2502013486298678
  0.9806726881998536  0.7799451341110253  0.2457190359181411
  0.7279657002524247  0.7782175538540372  0.2312940706186497
  0.7303807739773743  0.0279267562152509  0.2427980496626779
  0.7324973018507703  0.5318746750545604  0.2469638317772325
  0.7334686115741572  0.2823481795213386  0.2548351919466235
  0.3178078018154486  0.4464554290145934  0.2415989000599163
  0.3090691797344942  0.6898124966788557  0.2416396823708995
  0.3112222565861541  0.1984786057444151  0.2539626749813692
  0.3105107896863468  0.9441729396791242  0.2480862807033744
  0.5626784291975310  0.9406756430613190  0.2395710090000200
  0.5665665683156248  0.2028291584647570  0.2559101238682254
  0.5678223039270032  0.6989817810509728  0.2284505333390902
  0.5662032424484319  0.4511875475640533  0.2387493763860841
  0.0668568400042761  0.4467328250314675  0.2547027429733388
  0.0625334398670631  0.6957525168714130  0.2489445799822309
  0.0654349344160969  0.1973467831776755  0.2568013483155820
  0.0653322847409750  0.9487809908117544  0.2536891715930327
  0.8093180247487348  0.9448611627083308  0.2434737639162153
  0.8107631761442561  0.1862263631088111  0.2611036950494839
  0.8128825381661208  0.6998865368359672  0.2355661112315457
  0.8135540465463990  0.4489941292702893  0.2541692055837793
Cartesian
 -0.0038677100000000 -0.0015305500000000  0.0247448000000000
 -0.0024888100000000  0.0049654200000000  0.0090261500000000
  0.0000000000000000  0.0000000000000000  0.0000000000000000
  0.0000000000000000  0.0000000000000000  0.0000000000000000
  0.0000000000000000  0.0000000000000000  0.0000000000000000
  0.0000000000000000  0.0000000000000000  0.0000000000000000
  0.0000000000000000  0.0000000000000000  0.0000000000000000
  0.0000000000000000  0.0000000000000000  0.0000000000000000
  0.0000000000000000  0.0000000000000000  0.0000000000000000
  0.0000000000000000  0.0000000000000000  0.0000000000000000
  0.0000000000000000  0.0000000000000000  0.0000000000000000
  0.0000000000000000  0.0000000000000000  0.0000000000000000
  0.0000000000000000  0.0000000000000000  0.0000000000000000
  0.0000000000000000  0.0000000000000000  0.0000000000000000
  0.0000000000000000  0.0000000000000000  0.0000000000000000
  0.0000000000000000  0.0000000000000000  0.0000000000000000
  0.0000000000000000  0.0000000000000000  0.0000000000000000
  0.0000000000000000  0.0000000000000000  0.0000000000000000
  0.0000000000000000  0.0000000000000000  0.0000000000000000
  0.0000000000000000  0.0000000000000000  0.0000000000000000
  0.0000000000000000  0.0000000000000000  0.0000000000000000
  0.0000000000000000  0.0000000000000000  0.0000000000000000
  0.0000000000000000  0.0000000000000000  0.0000000000000000
  0.0000000000000000  0.0000000000000000  0.0000000000000000
  0.0000000000000000  0.0000000000000000  0.0000000000000000
  0.0000000000000000  0.0000000000000000  0.0000000000000000
  0.0000000000000000  0.0000000000000000  0.0000000000000000
  0.0000000000000000  0.0000000000000000  0.0000000000000000
  0.0000000000000000  0.0000000000000000  0.0000000000000000
  0.0000000000000000  0.0000000000000000  0.0000000000000000
  0.0000000000000000  0.0000000000000000  0.0000000000000000
  0.0000000000000000  0.0000000000000000  0.0000000000000000
  0.0000000000000000  0.0000000000000000  0.0000000000000000
  0.0000000000000000  0.0000000000000000  0.0000000000000000
  0.0135468000000000  0.0108316000000000  0.0049633400000000
  0.0051709700000000 -0.0103263000000000  0.0090916700000000
 -0.0054787500000000  0.0073262500000000 -0.0139360000000000
  0.0011034200000000 -0.0046663600000000  0.0048439600000000
 -0.0019015900000000  0.0006064620000000 -0.0046569800000000
  0.0029429800000000  0.0006435690000000 -0.0179257000000000
  0.0034420200000000  0.0021699900000000 -0.0036660300000000
  0.0056634000000000 -0.0072047600000000  0.0043947700000000
 -0.0001296820000000 -0.0088303100000000  0.0018089200000000
 -0.0081979400000000 -0.0045015800000000 -0.0094410800000000
 -0.0055954300000000 -0.0019704200000000 -0.0031495600000000
 -0.0034358000000000 -0.0052289100000000  0.0064978700000000
  0.0004781440000000  0.0011434300000000  0.0039827600000000
  0.0047909200000000  0.0055124600000000 -0.0015623600000000
 -0.0024903800000000 -0.0053019400000000 -0.0091116000000000
  0.0027113600000000 -0.0046165200000000 -0.0070674500000000
  0.0040898300000000  0.0092543000000000 -0.0036831600000000
 -0.0027138100000000  0.0000584335000000 -0.0005114890000000
  0.0047893500000000 -0.0008329530000000  0.0057548400000000
 -0.0073703400000000 -0.0070694600000000 -0.0033467600000000
 -0.0043518700000000 -0.0104759000000000  0.0046740100000000
 -0.0111422000000000  0.0025833100000000 -0.0037996000000000
 -0.0031943000000000 -0.0101105000000000 -0.0052403800000000
  0.0000690929000000  0.0014683200000000 -0.0117715000000000
  0.0056980700000000 -0.0040656700000000 -0.0012503200000000
  0.0025049600000000 -0.0052305000000000 -0.0000449530000000
 -0.0065721200000000 -0.0050777100000000  0.0021829000000000
  0.0079276500000000 -0.0084036100000000  0.0121950000000000
  0.0013609000000000  0.0001329430000000  0.0042296900000000
 -0.0074962100000000 -0.0025953900000000  0.0031259800000000
  0.0031933700000000 -0.0024342600000000 -0.0014848800000000
 -0.0076500100000000 -0.0062503400000000  0.0031666500000000
  0.0003928330000000 -0.0003134350000000  0.0018935500000000
 -0.0031234000000000 -0.0024085100000000  0.0127666000000000
 -0.0047893500000000 -0.0044064000000000 -0.0016500900000000
 -0.0071731800000000  0.0044629800000000  0.0009829620000000
  0.0008101400000000  0.0087703800000000  0.0047898700000000
 -0.0063860000000000  0.0032701900000000 -0.0073483000000000
  0.0081099300000000  0.0032024300000000  0.0006857820000000
  0.0001325630000000 -0.0022668200000000 -0.0061072900000000
 -0.0005994440000000  0.0026379100000000  0.0045279700000000
 -0.0077439300000000  0.0039308900000000  0.0059724300000000
 -0.0054937600000000 -0.0123172000000000  0.0003045820000000
  0.0002163150000000  0.0029452700000000 -0.0061694700000000
 -0.0113954000000000 -0.0044526000000000 -0.0068101500000000
 -0.0089106500000000  0.0056442400000000 -0.0006527170000000
 -0.0006910640000000  0.0012643300000000 -0.0105489000000000
 -0.0045715600000000 -0.0012830400000000  0.0070630900000000
 -0.0008569110000000 -0.0007635450000000 -0.0146319000000000
  0.0008628930000000  0.0024944900000000 -0.0083919900000000
  0.0025164600000000  0.0045693500000000  0.0015549000000000
  0.0056657700000000 -0.0133338000000000  0.0031317500000000
 -0.0001774110000000  0.0068083200000000 -0.0078906900000000
 -0.0001537970000000  0.0053675700000000 -0.0056718700000000
 -0.0004262750000000  0.0057163000000000 -0.0035176700000000
 -0.0000570495000000 -0.0074535300000000 -0.0047945600000000
 -0.0057444400000000  0.0031828600000000 -0.0025068800000000
 -0.0000984480000000 -0.0037168200000000 -0.0041777500000000
  0.0063379400000000 -0.0009131700000000  0.0053850400000000
 -0.0066879000000000  0.0110216000000000 -0.0012791400000000
 -0.0017048400000000  0.0079045800000000 -0.0058050800000000
 -0.0020015300000000  0.0010181100000000  0.0061767900000000
  0.0006887050000000 -0.0061990900000000 -0.0157400000000000
  0.0054077800000000 -0.0014099600000000 -0.0011547300000000
