N  O  C 
 1.0000000000000000
     9.8654639999999993    0.0000000000000000    0.0000000000000000
    -4.9327329999999998    8.5437419999999999    0.0000000000000000
     0.0000000000000000    0.0000000000000000   26.7272740000000013
 N   O   C  
   1   1  96
Direct
  0.5083725586917281  0.8888060992478471  0.6579084720723857
  0.4699524695409134  0.8210688010007793  0.6937594907733576
  0.9996738951095920  0.0003257471960179  0.0003673101865907
  0.9996743064729685  0.2503259110586439  0.0003672716491775
  0.9996743140319351  0.5003252673126132  0.0003672611729876
  0.9996738931776165  0.7503257940139110  0.0003673083158425
  0.2496747054340223  0.0003257460255705  0.0003673083158425
  0.2496741037455550  0.2503259110586439  0.0003673180437332
  0.2496740160226370  0.5003252673126132  0.0003672720233272
  0.2496747040872707  0.7503257940139110  0.0003672615471372
  0.4996740990074530  0.0003257495369125  0.0003672611729876
  0.4996745092003820  0.2503259110586439  0.0003673086899921
  0.4996745167593484  0.5003252673126132  0.0003673202886310
  0.4996740959050300  0.7503257940139110  0.0003672720233272
  0.7496745044622801  0.0003257495369125  0.0003672716491775
  0.7496739010181415  0.2503259110586439  0.0003672664110826
  0.7496739085771078  0.5003252673126132  0.0003673086899921
  0.7496745013598571  0.7503257940139110  0.0003673180437332
  0.0830075800666932  0.1669924021582112  0.0003612972276933
  0.0830082377222149  0.4169929288595091  0.0003612515814370
  0.0830072316441136  0.6669922851134784  0.0003612691664702
  0.0830078244268629  0.9169928118147763  0.0003613047106862
  0.3330080503942927  0.1669924021582112  0.0003613129419783
  0.3330076295399743  0.4169929288595091  0.0003612968535437
  0.3330075215443150  0.6669922851134784  0.0003612568195320
  0.3330082298816900  0.9169928118147763  0.0003612691664702
  0.5830074422120520  0.1669924021582112  0.0003612687923205
  0.5830080349948014  0.4169929288595091  0.0003613159351754
  0.5830070289167002  0.6669922851134784  0.0003612968535437
  0.5830076216994495  0.9169928118147763  0.0003612515814370
  0.8330078476668792  0.1669924021582112  0.0003612523297363
  0.8330074268125608  0.4169929288595091  0.0003612687923205
  0.8330074343715272  0.6669922851134784  0.0003613129419783
  0.8330080271542766  0.9169928118147763  0.0003612972276933
  0.9124733993857601  0.1536984614001687  0.1298763203460256
  0.9107296488560461  0.4009847207464832  0.1280901299548918
  0.9082388659417299  0.6544298739358001  0.1372721363203745
  0.9149438384335159  0.8999768485518407  0.1309100958070022
  0.1652172386888888  0.1536610070856541  0.1306032931005235
  0.1583078871855928  0.3921057073118547  0.1414555034681053
  0.1646622763263209  0.6456866323912871  0.1335227827574185
  0.1626435099446396  0.9021152558211613  0.1298931570799177
  0.4119302657824808  0.1542579352232312  0.1303788033152951
  0.4127428550484706  0.4058256908975014  0.1425674762042698
  0.4157240784371997  0.6503262856017890  0.1478658092853016
  0.4077208754861444  0.9061825602879863  0.1366532928124282
  0.6549936871039720  0.1422409525006724  0.1259215586295857
  0.6675487418220885  0.4107333765462487  0.1317904699147395
  0.6624392870048749  0.6521194109091777  0.1412830204831215
  0.6645075546934240  0.9053105770281922  0.1356094153111163
  0.0811276373708112  0.2298419123611176  0.1326888032052951
  0.0750984640957634  0.4777414861076095  0.1382991770877943
  0.0789517531670719  0.7300021466004006  0.1323801297506061
  0.0733591762828436  0.9833782433973312  0.1301509461832883
  0.3238398068511397  0.2358509889460614  0.1336290412557599
  0.3267790907609936  0.4833268607596062  0.1460564216163609
  0.3288737390292534  0.7338915430732810  0.1404950613369699
  0.3286067868297081 -0.0133357257276730  0.1284609122501606
  0.5807608155051017  0.2339443302478001  0.1322910821357988
  0.5767042336437938  0.4853809958212689  0.1405081565744415
  0.5814587339454271  0.7436729713982468  0.1478725439788585
  0.5687004756684931  0.9792453938801055  0.1295369666206887
  0.8243501505715836  0.2377073184091935  0.1236841437701428
  0.8268907311681258  0.4854125978991407  0.1306234971811940
  0.8275257156777177  0.7315447961794727  0.1358103336688957
  0.8309480742914862  0.9822827046977776  0.1283598918468079
  0.2028079622287988  0.3078428632325274  0.2716749190358882
  0.2086035566279253  0.5632777768804348  0.2799724356475711
  0.2066138783084970  0.0660104202584769  0.2669752253821321
  0.2045988612936326  0.8141982751819987  0.2746617556283518
  0.4536634423978033  0.8095750082340970  0.2912279793292799
  0.4546494074346857  0.0526862819593569  0.2768243405593852
  0.4512559341191678  0.5655706831971284  0.2873132516245390
  0.4611836356651527  0.3207107611629658  0.2737447148556938
  0.9553617077767316  0.3062311572610690  0.2666983546470171
  0.9571353445045266  0.5614928447043462  0.2720161435094354
  0.9586665543859336  0.0635206447011157  0.2777267894960032
  0.9562408087153006  0.8086246050032878  0.2770611772828011
  0.7093605101662989  0.8198316381744674  0.2938313125386450
  0.7033911631097258  0.0615744248831484  0.2807203607820236
  0.7098353682260707  0.5652394466031394  0.2814039321780440
  0.7113352190618654  0.3167862512702280  0.2702269599211652
  0.2914575746726162  0.4843404681461589  0.2750052249997512
  0.2937124863407111  0.7333028080670040  0.2810627077044969
  0.2911232613933551  0.2327809056031889  0.2704465857610470
  0.2898344813700822  0.9816143792731568  0.2734921638473120
  0.5372667793620209  0.9718505076581199  0.2883238298077088
  0.5448306376590716  0.2337886607530986  0.2718825720872244
  0.5412107624599894  0.7355851803577402  0.2913376051743998
  0.5361392072436812  0.4845066716668177  0.2814529457811523
  0.0456723261879625  0.4768449234539152  0.2694741708413660
  0.0386658087948339  0.7270748578316153  0.2697016538237307
  0.0385518201351745  0.2287990437913505  0.2691018919475290
  0.0435765240498506  0.9798832876741830  0.2767641024670155
  0.7952728270170838  0.9839201605104648  0.2856026394610988
  0.7874796490484222  0.2229620229637084  0.2736350890105740
  0.7875625995689173  0.7266804170818829  0.2851349524085397
  0.7971100031236313  0.4807963536352104  0.2737884903638134
Cartesian
 -0.0083612500000000  0.0018642700000000  0.0192904000000000
  0.0015627900000000  0.0017433000000000  0.0167737000000000
  0.0000000000000000  0.0000000000000000  0.0000000000000000
  0.0000000000000000  0.0000000000000000  0.0000000000000000
  0.0000000000000000  0.0000000000000000  0.0000000000000000
  0.0000000000000000  0.0000000000000000  0.0000000000000000
  0.0000000000000000  0.0000000000000000  0.0000000000000000
  0.0000000000000000  0.0000000000000000  0.0000000000000000
  0.0000000000000000  0.0000000000000000  0.0000000000000000
  0.0000000000000000  0.0000000000000000  0.0000000000000000
  0.0000000000000000  0.0000000000000000  0.0000000000000000
  0.0000000000000000  0.0000000000000000  0.0000000000000000
  0.0000000000000000  0.0000000000000000  0.0000000000000000
  0.0000000000000000  0.0000000000000000  0.0000000000000000
  0.0000000000000000  0.0000000000000000  0.0000000000000000
  0.0000000000000000  0.0000000000000000  0.0000000000000000
  0.0000000000000000  0.0000000000000000  0.0000000000000000
  0.0000000000000000  0.0000000000000000  0.0000000000000000
  0.0000000000000000  0.0000000000000000  0.0000000000000000
  0.0000000000000000  0.0000000000000000  0.0000000000000000
  0.0000000000000000  0.0000000000000000  0.0000000000000000
  0.0000000000000000  0.0000000000000000  0.0000000000000000
  0.0000000000000000  0.0000000000000000  0.0000000000000000
  0.0000000000000000  0.0000000000000000  0.0000000000000000
  0.0000000000000000  0.0000000000000000  0.0000000000000000
  0.0000000000000000  0.0000000000000000  0.0000000000000000
  0.0000000000000000  0.0000000000000000  0.0000000000000000
  0.0000000000000000  0.0000000000000000  0.0000000000000000
  0.0000000000000000  0.0000000000000000  0.0000000000000000
  0.0000000000000000  0.0000000000000000  0.0000000000000000
  0.0000000000000000  0.0000000000000000  0.0000000000000000
  0.0000000000000000  0.0000000000000000  0.0000000000000000
  0.0000000000000000  0.0000000000000000  0.0000000000000000
  0.0000000000000000  0.0000000000000000  0.0000000000000000
 -0.0079532700000000 -0.0023144700000000 -0.0103403000000000
 -0.0017622900000000  0.0000116137000000 -0.0050600500000000
 -0.0028363900000000 -0.0049876200000000 -0.0058349800000000
  0.0019153100000000 -0.0043265600000000 -0.0006957260000000
 -0.0082851600000000 -0.0072712900000000  0.0006033480000000
 -0.0036879800000000  0.0023391500000000 -0.0056254900000000
 -0.0005003430000000  0.0028469400000000  0.0047859100000000
 -0.0023011600000000 -0.0030411100000000  0.0135551000000000
  0.0094193900000000  0.0024405600000000  0.0008011580000000
 -0.0014273900000000 -0.0028902800000000  0.0018566300000000
 -0.0006125510000000  0.0063152200000000  0.0033417500000000
 -0.0016816600000000  0.0011134400000000  0.0032506600000000
  0.0084069700000000 -0.0048270200000000 -0.0092964900000000
  0.0007693990000000 -0.0079125500000000  0.0023689800000000
  0.0010238500000000  0.0000091355500000  0.0039907800000000
 -0.0060524400000000 -0.0072830400000000 -0.0053181700000000
  0.0021092800000000 -0.0032122700000000 -0.0071598600000000
 -0.0043198800000000 -0.0001311870000000  0.0043497500000000
  0.0102698000000000 -0.0031964400000000  0.0048966300000000
  0.0007776290000000  0.0034138200000000  0.0035420000000000
 -0.0062461900000000 -0.0055833000000000  0.0097974900000000
 -0.0046995100000000 -0.0103130000000000  0.0015728300000000
 -0.0134183000000000 -0.0062129100000000  0.0071650800000000
  0.0010123400000000 -0.0051767900000000 -0.0120710000000000
  0.0016869700000000 -0.0070247500000000 -0.0057982600000000
  0.0012061000000000  0.0055875900000000  0.0009701470000000
 -0.0052269700000000  0.0070075400000000  0.0028453000000000
  0.0013556300000000 -0.0007865580000000  0.0005932600000000
 -0.0066237600000000  0.0014099500000000  0.0043829500000000
  0.0098544400000000 -0.0014614600000000  0.0014825600000000
 -0.0148234000000000  0.0060947500000000  0.0065768500000000
  0.0033687400000000 -0.0112305000000000  0.0029900000000000
 -0.0072245600000000  0.0085940800000000 -0.0014028100000000
  0.0024945200000000 -0.0003688630000000 -0.0001606030000000
  0.0021836300000000 -0.0036473000000000  0.0152083000000000
  0.0021120900000000  0.0026447000000000  0.0021464700000000
  0.0018070800000000 -0.0069157100000000  0.0055395700000000
  0.0062656700000000 -0.0006274620000000 -0.0021204400000000
 -0.0004172330000000  0.0110034000000000  0.0042361900000000
 -0.0047403300000000 -0.0052362900000000 -0.0026013100000000
 -0.0027205600000000 -0.0009857920000000  0.0051971600000000
  0.0031235000000000 -0.0037163800000000  0.0045712200000000
  0.0014951300000000  0.0016708600000000  0.0145319000000000
 -0.0048113300000000 -0.0027110000000000  0.0011685400000000
 -0.0058989000000000  0.0051932900000000 -0.0008686870000000
  0.0053714300000000  0.0034648300000000  0.0073418300000000
 -0.0054768800000000  0.0074193300000000  0.0014770300000000
  0.0032958200000000 -0.0023870600000000  0.0151557000000000
  0.0097109900000000 -0.0033098200000000 -0.0013398200000000
 -0.0093516600000000 -0.0010262300000000 -0.0033635100000000
  0.0033475100000000  0.0044000900000000  0.0188955000000000
 -0.0043286700000000 -0.0055294900000000  0.0007834860000000
 -0.0039093700000000 -0.0026841500000000 -0.0129997000000000
 -0.0052464200000000  0.0077100800000000 -0.0027788400000000
  0.0083445200000000  0.0000439584000000  0.0005334480000000
  0.0008218260000000  0.0013951600000000  0.0097426000000000
  0.0050582700000000  0.0163321000000000 -0.0017621900000000
  0.0031706800000000  0.0017189100000000  0.0029709300000000
  0.0102773000000000 -0.0098729900000000 -0.0036216600000000
  0.0016959300000000  0.0049070500000000 -0.0013128500000000
 -0.0075645200000000 -0.0046950100000000 -0.0115094000000000
 -0.0078743100000000 -0.0007396320000000 -0.0055199800000000
 -0.0027672800000000 -0.0054562900000000  0.0065286700000000
 -0.0066201100000000  0.0028113600000000  0.0045194800000000
