N  O  C 
 1.0000000000000000
     9.8654639999999993    0.0000000000000000    0.0000000000000000
    -4.9327329999999998    8.5437419999999999    0.0000000000000000
     0.0000000000000000    0.0000000000000000   26.7272740000000013
 N   O   C  
   1   1  96
Direct
  0.3291594039898752  0.3344272334066268  0.3776778731718020
  0.3496994451512138  0.3987175642710185  0.4142173272141409
  0.9996738951095920  0.0003257471960179  0.0003673101865907
  0.9996743064729685  0.2503259110586439  0.0003672716491775
  0.9996743140319351  0.5003252673126132  0.0003672611729876
  0.9996738931776165  0.7503257940139110  0.0003673083158425
  0.2496747054340223  0.0003257460255705  0.0003673083158425
  0.2496741037455550  0.2503259110586439  0.0003673180437332
  0.2496740160226370  0.5003252673126132  0.0003672720233272
  0.2496747040872707  0.7503257940139110  0.0003672615471372
  0.4996740990074530  0.0003257495369125  0.0003672611729876
  0.4996745092003820  0.2503259110586439  0.0003673086899921
  0.4996745167593484  0.5003252673126132  0.0003673202886310
  0.4996740959050300  0.7503257940139110  0.0003672720233272
  0.7496745044622801  0.0003257495369125  0.0003672716491775
  0.7496739010181415  0.2503259110586439  0.0003672664110826
  0.7496739085771078  0.5003252673126132  0.0003673086899921
  0.7496745013598571  0.7503257940139110  0.0003673180437332
  0.0830075800666932  0.1669924021582112  0.0003612972276933
  0.0830082377222149  0.4169929288595091  0.0003612515814370
  0.0830072316441136  0.6669922851134784  0.0003612691664702
  0.0830078244268629  0.9169928118147763  0.0003613047106862
  0.3330080503942927  0.1669924021582112  0.0003613129419783
  0.3330076295399743  0.4169929288595091  0.0003612968535437
  0.3330075215443150  0.6669922851134784  0.0003612568195320
  0.3330082298816900  0.9169928118147763  0.0003612691664702
  0.5830074422120520  0.1669924021582112  0.0003612687923205
  0.5830080349948014  0.4169929288595091  0.0003613159351754
  0.5830070289167002  0.6669922851134784  0.0003612968535437
  0.5830076216994495  0.9169928118147763  0.0003612515814370
  0.8330078476668792  0.1669924021582112  0.0003612523297363
  0.8330074268125608  0.4169929288595091  0.0003612687923205
  0.8330074343715272  0.6669922851134784  0.0003613129419783
  0.8330080271542766  0.9169928118147763  0.0003612972276933
  0.8065714064255796  0.9637884664588421  0.1303133271279368
  0.8080563126920174  0.2115501615100269  0.1301303679529757
  0.8083323418477899  0.4622880700283318  0.1350220003731020
  0.8003375192202317  0.7121774042334145  0.1284841095279676
  0.0585149194739888  0.9649167776835957  0.1342415242197914
  0.0595447490635434  0.2109707900823784  0.1352872724693136
  0.0532214485466400  0.4679483533093579  0.1364052315997509
  0.0599458785271095  0.7146634343593241  0.1344847214871221
  0.3067271583216397  0.9572433249974075  0.1316924427085231
  0.3069403862419944  0.2088171669977862  0.1280534632899711
  0.3022754701037527  0.4592952362091459  0.1304846876639945
  0.3105708555670154  0.7098798161274065  0.1323341093446342
  0.5629256563715835  0.9621264312522546  0.1289054020249128
  0.5518996418891680  0.2077075829302898  0.1350897214583126
  0.5525642942861135  0.4597376652993501  0.1301509461832883
  0.5630301907738949  0.7094432392738451  0.1236224090792050
  0.9694224087031269  0.0458633933468497  0.1335934970397654
  0.9745588321186931  0.2995104487003470  0.1353740751862685
  0.9682197011999242  0.5464326989274724  0.1366828506341500
  0.9684415527860439  0.7938348325593165  0.1296926128717804
  0.2237952227079540  0.0386770808388175  0.1342145854455640
  0.2252416787100884  0.2976728463944721  0.1341842793245581
  0.2244720853737147  0.5460054856525396  0.1333319664399744
  0.2255203409544258  0.7946330776374099  0.1309733270965082
  0.4747908348982079  0.0460782874763774  0.1297693135484000
  0.4718667720192804  0.2881231666405657  0.1308663202988827
  0.4686888935033099  0.5397623196018794  0.1247051981432899
  0.4810482696198634  0.7941391488647480  0.1311132590626339
  0.7239983852760273  0.0448777596514501  0.1283602659964499
  0.7170192377201153  0.2871060479120273  0.1338396875042326
  0.7217369278483150  0.5440087025099775  0.1353100955974784
  0.7234204886383702  0.7981678285697298  0.1255141096693961
  0.1246629435144312  0.3674818364131314  0.2612159399420981
  0.1184548884084713  0.6167133792195505  0.2622774024765863
  0.1191922249244041  0.1192451738360077  0.2583783890568114
  0.1211485580431391  0.8694504117750746  0.2615826065913044
  0.3757983802172926  0.8755706808562337  0.2646012459033421
  0.3722283117990293  0.1215685117832444  0.2603075046112073
  0.3736855116855277  0.6167520039813937  0.2649619261582756
  0.3757112157801551  0.3675661086207894  0.2628187970086287
  0.8737499640066808  0.3743804529677979  0.2633860078659724
  0.8698422867661753  0.6220705166424735  0.2588954638621208
  0.8769108060457435  0.1237958730495373  0.2621397154083129
  0.8700073685878565  0.8719844302414562  0.2634196813337567
  0.6236707439271724  0.8710082771694183  0.2657974023089673
  0.6274858644161592  0.1269315014428104  0.2669538988525355
  0.6180327288808275  0.6217404504958132  0.2610763821256145
  0.6183640246947676  0.3721624552801337  0.2608971644470738
  0.2054868546301185  0.5388540524748993  0.2619425385469539
  0.2069677413662090  0.7848352630498440  0.2592220964996281
  0.2039995252982315  0.2862094852583330  0.2599281168741713
  0.2080663413081801  0.0427797328149656  0.2646244431811490
  0.4624090573545640  0.0444297124140687  0.2652073683234586
  0.4535247321119809  0.2812643452950709  0.2618437630414535
  0.4535509947592877  0.7853561121110633  0.2668072321928529
  0.4526023567754752  0.5334430744748613  0.2632097833845681
  0.9549500610471545  0.5369509051186238  0.2592037631671678
  0.9563040199928188  0.7902298547872818  0.2606921304432319
  0.9568057092853886  0.2924245605731072  0.2648665179995536
  0.9515626224441338  0.0342541944735691  0.2614127426538150
  0.7063115232897604  0.0379608841184577  0.2653626404249083
  0.7093067296666715  0.2920125631134461  0.2633650554860178
  0.7016522004091444  0.7866763766977046  0.2603022665162186
  0.7038737552191067  0.5368385421750798  0.2644441030536822
Cartesian
 -0.0003482910000000  0.0014797100000000 -0.0326077000000000
  0.0002910050000000 -0.0013662500000000 -0.0368558000000000
  0.0000000000000000  0.0000000000000000  0.0000000000000000
  0.0000000000000000  0.0000000000000000  0.0000000000000000
  0.0000000000000000  0.0000000000000000  0.0000000000000000
  0.0000000000000000  0.0000000000000000  0.0000000000000000
  0.0000000000000000  0.0000000000000000  0.0000000000000000
  0.0000000000000000  0.0000000000000000  0.0000000000000000
  0.0000000000000000  0.0000000000000000  0.0000000000000000
  0.0000000000000000  0.0000000000000000  0.0000000000000000
  0.0000000000000000  0.0000000000000000  0.0000000000000000
  0.0000000000000000  0.0000000000000000  0.0000000000000000
  0.0000000000000000  0.0000000000000000  0.0000000000000000
  0.0000000000000000  0.0000000000000000  0.0000000000000000
  0.0000000000000000  0.0000000000000000  0.0000000000000000
  0.0000000000000000  0.0000000000000000  0.0000000000000000
  0.0000000000000000  0.0000000000000000  0.0000000000000000
  0.0000000000000000  0.0000000000000000  0.0000000000000000
  0.0000000000000000  0.0000000000000000  0.0000000000000000
  0.0000000000000000  0.0000000000000000  0.0000000000000000
  0.0000000000000000  0.0000000000000000  0.0000000000000000
  0.0000000000000000  0.0000000000000000  0.0000000000000000
  0.0000000000000000  0.0000000000000000  0.0000000000000000
  0.0000000000000000  0.0000000000000000  0.0000000000000000
  0.0000000000000000  0.0000000000000000  0.0000000000000000
  0.0000000000000000  0.0000000000000000  0.0000000000000000
  0.0000000000000000  0.0000000000000000  0.0000000000000000
  0.0000000000000000  0.0000000000000000  0.0000000000000000
  0.0000000000000000  0.0000000000000000  0.0000000000000000
  0.0000000000000000  0.0000000000000000  0.0000000000000000
  0.0000000000000000  0.0000000000000000  0.0000000000000000
  0.0000000000000000  0.0000000000000000  0.0000000000000000
  0.0000000000000000  0.0000000000000000  0.0000000000000000
  0.0000000000000000  0.0000000000000000  0.0000000000000000
 -0.0005042200000000  0.0038581500000000 -0.0047633700000000
 -0.0037326800000000 -0.0067181600000000 -0.0036118000000000
  0.0002295340000000  0.0069641300000000 -0.0035282000000000
  0.0026497700000000 -0.0044794300000000  0.0081619500000000
 -0.0010005500000000 -0.0059021800000000  0.0062782600000000
  0.0020208900000000 -0.0084904600000000 -0.0038172000000000
  0.0032646900000000  0.0034500500000000  0.0025899800000000
 -0.0043150500000000  0.0038028300000000  0.0033725100000000
 -0.0076372600000000 -0.0068962900000000  0.0085818400000000
  0.0032746800000000  0.0024331400000000 -0.0024421300000000
  0.0084992400000000  0.0000474381000000  0.0015274800000000
 -0.0012167200000000  0.0042536400000000  0.0048381300000000
 -0.0078815100000000 -0.0093674200000000  0.0063910800000000
  0.0014802700000000  0.0028006300000000 -0.0003890310000000
 -0.0000928527000000 -0.0062693000000000  0.0069888800000000
 -0.0017255100000000 -0.0040864700000000  0.0027530700000000
 -0.0021538000000000 -0.0063329100000000  0.0002102920000000
  0.0015246300000000 -0.0012971300000000 -0.0032838200000000
 -0.0031007000000000  0.0016243100000000 -0.0060304800000000
 -0.0060678300000000 -0.0034790500000000 -0.0020359900000000
  0.0045917200000000 -0.0041001100000000 -0.0122889000000000
  0.0050161200000000  0.0012644500000000  0.0010747500000000
  0.0018580700000000  0.0001487610000000 -0.0029895300000000
  0.0096443300000000  0.0073954900000000  0.0013166300000000
 -0.0015559800000000  0.0024284000000000 -0.0023971700000000
 -0.0058147400000000 -0.0057465100000000 -0.0020025300000000
  0.0003619670000000  0.0092396100000000 -0.0102411000000000
 -0.0134677000000000 -0.0124136000000000  0.0052745900000000
 -0.0061549300000000  0.0016108200000000  0.0075062700000000
 -0.0037751100000000 -0.0030556700000000  0.0023913100000000
  0.0138896000000000 -0.0023468400000000  0.0092428200000000
  0.0053312000000000  0.0005629410000000  0.0053848300000000
 -0.0039059200000000  0.0020397400000000 -0.0007974210000000
 -0.0042532000000000  0.0035279400000000 -0.0031359800000000
 -0.0084747300000000 -0.0003128370000000 -0.0074288600000000
  0.0004304510000000  0.0001957120000000  0.0032115300000000
  0.0004515820000000  0.0032297600000000 -0.0076439300000000
  0.0031884700000000 -0.0144982000000000  0.0031799200000000
 -0.0022748800000000 -0.0047893400000000 -0.0098159800000000
 -0.0077852200000000  0.0030793800000000 -0.0006871590000000
 -0.0006893000000000 -0.0048254900000000  0.0043433900000000
 -0.0083678600000000 -0.0034606700000000  0.0006172010000000
 -0.0006614880000000  0.0069757600000000  0.0045657500000000
  0.0040367200000000 -0.0097196400000000 -0.0027325300000000
 -0.0067345700000000 -0.0019946600000000  0.0045367800000000
  0.0037090700000000  0.0027476800000000  0.0065627900000000
  0.0014976400000000  0.0111388000000000 -0.0047202500000000
  0.0025508800000000  0.0056432800000000 -0.0025394400000000
 -0.0031160400000000  0.0003807310000000  0.0136123000000000
 -0.0025600400000000 -0.0035115900000000 -0.0013607500000000
 -0.0000083055800000 -0.0012536900000000  0.0090761300000000
 -0.0044041500000000  0.0001109130000000  0.0091384400000000
  0.0004604380000000 -0.0053672900000000 -0.0043688300000000
 -0.0006895160000000  0.0065743700000000 -0.0002809630000000
 -0.0071464200000000  0.0014707600000000  0.0071760600000000
 -0.0104726000000000  0.0021260000000000  0.0130371000000000
 -0.0020412300000000 -0.0001145530000000  0.0007865390000000
 -0.0050118700000000  0.0012173700000000  0.0015503900000000
 -0.0032552500000000  0.0055240900000000 -0.0045787200000000
 -0.0019747300000000 -0.0012631200000000 -0.0001554350000000
  0.0062475700000000 -0.0054945000000000 -0.0079115700000000
 -0.0039006400000000  0.0003260350000000 -0.0099837500000000
  0.0019772700000000  0.0021949900000000  0.0148549000000000
  0.0081392100000000  0.0116864000000000  0.0047887700000000
