N  O  C 
 1.0000000000000000
     9.8654639999999993    0.0000000000000000    0.0000000000000000
    -4.9327329999999998    8.5437419999999999    0.0000000000000000
     0.0000000000000000    0.0000000000000000   26.7272740000000013
 N   O   C  
   1   1  96
Direct
  0.5054097616688581  0.0056625422443702  0.3297485557262593
  0.6263830295241430  0.0474035849865317  0.3446150176033665
  0.9996738951095920  0.0003257471960179  0.0003673101865907
  0.9996743064729685  0.2503259110586439  0.0003672716491775
  0.9996743140319351  0.5003252673126132  0.0003672611729876
  0.9996738931776165  0.7503257940139110  0.0003673083158425
  0.2496747054340223  0.0003257460255705  0.0003673083158425
  0.2496741037455550  0.2503259110586439  0.0003673180437332
  0.2496740160226370  0.5003252673126132  0.0003672720233272
  0.2496747040872707  0.7503257940139110  0.0003672615471372
  0.4996740990074530  0.0003257495369125  0.0003672611729876
  0.4996745092003820  0.2503259110586439  0.0003673086899921
  0.4996745167593484  0.5003252673126132  0.0003673202886310
  0.4996740959050300  0.7503257940139110  0.0003672720233272
  0.7496745044622801  0.0003257495369125  0.0003672716491775
  0.7496739010181415  0.2503259110586439  0.0003672664110826
  0.7496739085771078  0.5003252673126132  0.0003673086899921
  0.7496745013598571  0.7503257940139110  0.0003673180437332
  0.0830075800666932  0.1669924021582112  0.0003612972276933
  0.0830082377222149  0.4169929288595091  0.0003612515814370
  0.0830072316441136  0.6669922851134784  0.0003612691664702
  0.0830078244268629  0.9169928118147763  0.0003613047106862
  0.3330080503942927  0.1669924021582112  0.0003613129419783
  0.3330076295399743  0.4169929288595091  0.0003612968535437
  0.3330075215443150  0.6669922851134784  0.0003612568195320
  0.3330082298816900  0.9169928118147763  0.0003612691664702
  0.5830074422120520  0.1669924021582112  0.0003612687923205
  0.5830080349948014  0.4169929288595091  0.0003613159351754
  0.5830070289167002  0.6669922851134784  0.0003612968535437
  0.5830076216994495  0.9169928118147763  0.0003612515814370
  0.8330078476668792  0.1669924021582112  0.0003612523297363
  0.8330074268125608  0.4169929288595091  0.0003612687923205
  0.8330074343715272  0.6669922851134784  0.0003613129419783
  0.8330080271542766  0.9169928118147763  0.0003612972276933
  0.0469279011435731  0.3368184572989212  0.1287172047549630
  0.0592512731984863  0.5932271831242095  0.1318963542634389
  0.0422410031202132  0.8391042238869104  0.1277552660252594
  0.0519447617794870  0.0903675462110162  0.1304420346048011
  0.3049764877868899  0.3468796225354183  0.1306627828936090
  0.3045262344681938  0.5968848310260305  0.1265314225461227
  0.3012101823646854  0.8437286612821407  0.1341360140207340
  0.2982004055680570  0.0934867883416892  0.1305164903835685
  0.5541096440663574  0.3392822489255879  0.1318043134514953
  0.5518421259851177  0.5920731220582269  0.1324448576386802
  0.5500438699449191  0.8386138064562343  0.1336181909161406
  0.5533310432471151  0.0894853800594634  0.1323861161448788
  0.7989970834838295  0.3426917619937493  0.1322910821357988
  0.7972185305612900  0.5886413704908224  0.1319554699068824
  0.7894867117513555  0.8295873166582044  0.1319932590207292
  0.7961708567534308  0.0862554136115065  0.1350175105773974
  0.2159677423986126  0.4259468509231669  0.1293682251321253
  0.2206588945234222  0.6771646428461908  0.1298220686479287
  0.2195819339029286  0.9293281562107095  0.1312135311667026
  0.2171270897523769  0.1780999473064613  0.1282768306262734
  0.4783496333311086  0.4338895064949293  0.1293757081249663
  0.4667841109604819  0.6696433483127182  0.1344656398553777
  0.4612298652932443  0.9173228779614366  0.1307866264251266
  0.4665936529284304  0.1698658503498818  0.1303470005957211
  0.7199190354824248  0.4221990785770450  0.1301647897200440
  0.7098319507106315  0.6732518374267388  0.1335848915979984
  0.7150356443670287  0.9223686763949568  0.1338183609746359
  0.7186337889315769  0.1761347662417709  0.1328571705442164
  0.9726954207113003  0.4278301006748565  0.1316995515517220
  0.9661503850394468  0.6723821950616018  0.1342325446283822
  0.9554264408077825  0.9186337789694492  0.1285076809554166
  0.9629946587223943  0.1689447083022872  0.1347918983432429
  0.3083547842183818  0.2537564921787198  0.2620024024896815
  0.3127296371366314  0.5137093325149567  0.2667634566847333
  0.3043088546918553  0.0041697069036027  0.2539125389293349
  0.3113688200519301  0.7622936179486693  0.2603677427035769
  0.5546033059821053  0.7580764962237858  0.2588445795108024
  0.5571463718548205  0.0073037551929822  0.2439758727358428
  0.5546384179651030  0.5028967400935094  0.2701745789712786
  0.5576645463549870  0.2505810685762749  0.2544262463878658
  0.0622499605123594  0.2613491839992359  0.2562779129663579
  0.0616349884474777  0.5061915493234698  0.2618216882125727
  0.0596347923799661  0.0083308578372334  0.2631473003943463
  0.0591453621842167  0.7528598124802927  0.2669509056553991
  0.8118173180699613  0.7620267559577525  0.2615242392471451
  0.8122873378583104  0.0096622884913894  0.2525435253890838
  0.8101606637510723  0.5038810862968475  0.2634787969772002
  0.8071854368812447  0.2559897056816557  0.2500524370723329
  0.3911379375654976  0.4212486753462359  0.2638443411774803
  0.3874194288014852  0.6715523479056367  0.2627589330659011
  0.3899635604536477  0.1680024982027781  0.2609020283924204
  0.3982457005314168  0.9239230304473146  0.2549751239127492
  0.6405701807089678  0.9280032098347539  0.2506821309198985
  0.6426480880996241  0.1707717765822049  0.2442587298652305
  0.6422811193808267  0.6709589311100452  0.2650363819370430
  0.6444947371132016  0.4162134109386730  0.2654535587879258
  0.1497924461679051  0.4268878905753474  0.2575249537233015
  0.1434833973142217  0.6735374265749130  0.2639943751839413
  0.1460003612661529  0.1763232082616727  0.2635177085399731
  0.1437069300730480  0.9201097130507920  0.2627361099377363
  0.8920935256217176  0.9267086950893414  0.2574856680108866
  0.8918343128812241  0.1801575937101097  0.2518027090978302
  0.8925574298629311  0.6763336252428971  0.2666833886613352
  0.8919583996678384  0.4210614037736627  0.2606636950704363
Cartesian
  0.0042028800000000 -0.0012741000000000  0.0022948400000000
 -0.0021882400000000 -0.0020131600000000  0.0104889000000000
  0.0000000000000000  0.0000000000000000  0.0000000000000000
  0.0000000000000000  0.0000000000000000  0.0000000000000000
  0.0000000000000000  0.0000000000000000  0.0000000000000000
  0.0000000000000000  0.0000000000000000  0.0000000000000000
  0.0000000000000000  0.0000000000000000  0.0000000000000000
  0.0000000000000000  0.0000000000000000  0.0000000000000000
  0.0000000000000000  0.0000000000000000  0.0000000000000000
  0.0000000000000000  0.0000000000000000  0.0000000000000000
  0.0000000000000000  0.0000000000000000  0.0000000000000000
  0.0000000000000000  0.0000000000000000  0.0000000000000000
  0.0000000000000000  0.0000000000000000  0.0000000000000000
  0.0000000000000000  0.0000000000000000  0.0000000000000000
  0.0000000000000000  0.0000000000000000  0.0000000000000000
  0.0000000000000000  0.0000000000000000  0.0000000000000000
  0.0000000000000000  0.0000000000000000  0.0000000000000000
  0.0000000000000000  0.0000000000000000  0.0000000000000000
  0.0000000000000000  0.0000000000000000  0.0000000000000000
  0.0000000000000000  0.0000000000000000  0.0000000000000000
  0.0000000000000000  0.0000000000000000  0.0000000000000000
  0.0000000000000000  0.0000000000000000  0.0000000000000000
  0.0000000000000000  0.0000000000000000  0.0000000000000000
  0.0000000000000000  0.0000000000000000  0.0000000000000000
  0.0000000000000000  0.0000000000000000  0.0000000000000000
  0.0000000000000000  0.0000000000000000  0.0000000000000000
  0.0000000000000000  0.0000000000000000  0.0000000000000000
  0.0000000000000000  0.0000000000000000  0.0000000000000000
  0.0000000000000000  0.0000000000000000  0.0000000000000000
  0.0000000000000000  0.0000000000000000  0.0000000000000000
  0.0000000000000000  0.0000000000000000  0.0000000000000000
  0.0000000000000000  0.0000000000000000  0.0000000000000000
  0.0000000000000000  0.0000000000000000  0.0000000000000000
  0.0000000000000000  0.0000000000000000  0.0000000000000000
 -0.0053903800000000 -0.0067898000000000 -0.0005294650000000
  0.0035706000000000 -0.0002892140000000 -0.0073802700000000
 -0.0043417900000000  0.0011630200000000  0.0070952000000000
 -0.0087420600000000  0.0052345500000000 -0.0001970360000000
 -0.0025158300000000 -0.0023652200000000  0.0019920200000000
  0.0042273100000000  0.0088820600000000  0.0048206600000000
 -0.0048221700000000 -0.0026404400000000 -0.0007887490000000
  0.0008409800000000  0.0025653800000000 -0.0007722640000000
  0.0064542800000000  0.0078387400000000  0.0029337400000000
  0.0097826000000000 -0.0090050800000000  0.0106710000000000
  0.0045317900000000  0.0079031900000000 -0.0015034000000000
  0.0075852000000000  0.0027324900000000 -0.0039508300000000
  0.0043795500000000  0.0014700800000000 -0.0083618000000000
  0.0032974800000000  0.0005453050000000 -0.0027728100000000
  0.0107448000000000  0.0037649900000000 -0.0019109500000000
  0.0005522380000000  0.0019254600000000  0.0095770700000000
  0.0037099900000000  0.0033679400000000  0.0092914100000000
 -0.0076578400000000 -0.0004978250000000 -0.0036320700000000
  0.0040917200000000  0.0073585100000000 -0.0044706300000000
 -0.0021950600000000  0.0054283600000000 -0.0021801700000000
 -0.0099970000000000  0.0001665620000000 -0.0119187000000000
 -0.0005337070000000 -0.0031281900000000 -0.0066576300000000
 -0.0025356000000000  0.0008708720000000 -0.0011266100000000
 -0.0030628800000000 -0.0042850200000000 -0.0009843360000000
  0.0000141526000000 -0.0027479800000000 -0.0018511000000000
  0.0029679900000000 -0.0144058000000000  0.0013496200000000
  0.0022720900000000 -0.0041352800000000  0.0064226700000000
 -0.0015634400000000  0.0033487600000000 -0.0128164000000000
  0.0010832700000000 -0.0106390000000000  0.0009987420000000
 -0.0007894230000000  0.0060118800000000 -0.0052298900000000
 -0.0022020900000000 -0.0080049100000000 -0.0026966100000000
 -0.0093374700000000  0.0037393600000000  0.0052593000000000
 -0.0111169000000000  0.0024442800000000 -0.0112181000000000
  0.0063376100000000 -0.0014671300000000 -0.0069615500000000
 -0.0015019300000000 -0.0061007400000000 -0.0057095400000000
 -0.0040198000000000 -0.0020048900000000 -0.0017272000000000
  0.0028250300000000 -0.0028471000000000 -0.0164997000000000
 -0.0035761600000000 -0.0030515800000000 -0.0064776300000000
 -0.0100438000000000 -0.0009519900000000 -0.0094164800000000
 -0.0059934200000000  0.0084851300000000 -0.0057895800000000
  0.0081395200000000 -0.0054086100000000 -0.0055300100000000
  0.0014467800000000  0.0032469300000000 -0.0088559800000000
 -0.0038867300000000  0.0056279200000000  0.0009855500000000
 -0.0078319700000000  0.0027356900000000  0.0021495100000000
 -0.0061814600000000 -0.0026254400000000 -0.0036225300000000
 -0.0112794000000000 -0.0000150629000000 -0.0010372300000000
 -0.0002869390000000  0.0002941830000000 -0.0084632900000000
  0.0017301700000000  0.0064192000000000 -0.0053004800000000
 -0.0004899920000000  0.0090835800000000  0.0159649000000000
 -0.0004479820000000 -0.0045148600000000 -0.0051359300000000
 -0.0040146900000000 -0.0047456500000000  0.0006909100000000
  0.0052756800000000 -0.0010113900000000 -0.0049336500000000
  0.0018611200000000  0.0014131800000000 -0.0041034400000000
 -0.0053624900000000 -0.0020066100000000 -0.0042461700000000
  0.0089815400000000 -0.0053540900000000  0.0032289300000000
 -0.0061179700000000 -0.0002814520000000  0.0004216060000000
 -0.0021115200000000  0.0019542900000000  0.0006248440000000
 -0.0127893000000000  0.0021346200000000  0.0022925500000000
 -0.0029747500000000 -0.0035848700000000  0.0009602960000000
  0.0019542800000000 -0.0011350700000000 -0.0097826000000000
  0.0045403400000000 -0.0106402000000000 -0.0114124000000000
  0.0070230200000000  0.0041125100000000 -0.0291055000000000
 -0.0080528300000000  0.0063267700000000  0.0194156000000000
 -0.0086930400000000  0.0002209930000000 -0.0039718800000000
