N  O  C 
 1.0000000000000000
     9.8654639999999993    0.0000000000000000    0.0000000000000000
    -4.9327329999999998    8.5437419999999999    0.0000000000000000
     0.0000000000000000    0.0000000000000000   26.7272740000000013
 N   O   C  
   1   1  96
Direct
  0.5433120130783563  0.7317414313306746  0.4285285510224500
  0.5940272993634299  0.8003788035734225  0.3889697093687894
  0.9996738951095920  0.0003257471960179  0.0003673101865907
  0.9996743064729685  0.2503259110586439  0.0003672716491775
  0.9996743140319351  0.5003252673126132  0.0003672611729876
  0.9996738931776165  0.7503257940139110  0.0003673083158425
  0.2496747054340223  0.0003257460255705  0.0003673083158425
  0.2496741037455550  0.2503259110586439  0.0003673180437332
  0.2496740160226370  0.5003252673126132  0.0003672720233272
  0.2496747040872707  0.7503257940139110  0.0003672615471372
  0.4996740990074530  0.0003257495369125  0.0003672611729876
  0.4996745092003820  0.2503259110586439  0.0003673086899921
  0.4996745167593484  0.5003252673126132  0.0003673202886310
  0.4996740959050300  0.7503257940139110  0.0003672720233272
  0.7496745044622801  0.0003257495369125  0.0003672716491775
  0.7496739010181415  0.2503259110586439  0.0003672664110826
  0.7496739085771078  0.5003252673126132  0.0003673086899921
  0.7496745013598571  0.7503257940139110  0.0003673180437332
  0.0830075800666932  0.1669924021582112  0.0003612972276933
  0.0830082377222149  0.4169929288595091  0.0003612515814370
  0.0830072316441136  0.6669922851134784  0.0003612691664702
  0.0830078244268629  0.9169928118147763  0.0003613047106862
  0.3330080503942927  0.1669924021582112  0.0003613129419783
  0.3330076295399743  0.4169929288595091  0.0003612968535437
  0.3330075215443150  0.6669922851134784  0.0003612568195320
  0.3330082298816900  0.9169928118147763  0.0003612691664702
  0.5830074422120520  0.1669924021582112  0.0003612687923205
  0.5830080349948014  0.4169929288595091  0.0003613159351754
  0.5830070289167002  0.6669922851134784  0.0003612968535437
  0.5830076216994495  0.9169928118147763  0.0003612515814370
  0.8330078476668792  0.1669924021582112  0.0003612523297363
  0.8330074268125608  0.4169929288595091  0.0003612687923205
  0.8330074343715272  0.6669922851134784  0.0003613129419783
  0.8330080271542766  0.9169928118147763  0.0003612972276933
  0.9967181041918975  0.2449324897685347  0.1168027835536089
  0.0041452501585843  0.4957991474929837  0.1146372054254392
  0.9909099846355311  0.7353604544706523  0.1148875115359688
  0.9959002881824911  0.9858993869430983  0.1154113210348351
  0.2494128198014115  0.2430586035954738  0.1177493821479886
  0.2453360410416383  0.4897783664347543  0.1182623413072354
  0.2529901281775944  0.7458289353774962  0.1190951984104327
  0.2464726920157079  0.9912167291568496  0.1147995863700877
  0.4951217853446465  0.2319639333678381  0.1132524776002222
  0.5017640347857104  0.4922737601392926  0.1242184294589864
  0.4915450486589999  0.7310754468007110  0.1251100280559851
  0.5028702311165621  0.9887388921622400  0.1197649262696974
  0.7464758757834146  0.2350504029733108  0.1168772393323764
  0.7482712935967100  0.4884885334786561  0.1167743481808134
  0.7404033835774606  0.7332513083845462  0.1234428172510223
  0.7462350639005055  0.9875286496244853  0.1202827493742909
  0.1703014211799855  0.3282343965910955  0.1145750965848593
  0.1772972131226386  0.5870881868857931  0.1193728174448318
  0.1681132097848653  0.8261555650907998  0.1125307429407129
  0.1646724346686477  0.0816342534687962  0.1154191781773180
  0.4113701300726275  0.3205316827216927  0.1178990420048075
  0.4098856410476561  0.5678296465412931  0.1246281233170281
  0.4180040193614502  0.8225868711859511  0.1213909806140349
  0.4147348175963143  0.0704926483032844  0.1122561171034502
  0.6670140994006291  0.3189071018296199  0.1134287020816264
  0.6636455180480664  0.5723826866494799  0.1195445521305315
  0.6605449008571093  0.8148326576340905  0.1262972048702011
  0.6660145813172523  0.0694711989196303  0.1172540080219180
  0.9142415095228736  0.3295570020723941  0.1170130556524395
  0.9146850752407559  0.5683224048666263  0.1179364569690123
  0.9120403485779420  0.8219056708407160  0.1155198244310288
  0.9144141099514972  0.0684893106556823  0.1224726472291937
  0.2210197890523138  0.2841951454058421  0.2381290362795697
  0.2250185081698645  0.5381108184212492  0.2437603625420235
  0.2221052336144254  0.0348774576760394  0.2401457028502046
  0.2238183061649210  0.7914155179311361  0.2464041039127297
  0.4753193497213508  0.7944153744342936  0.2640635928677201
  0.4692993658686623  0.0354582336404821  0.2436136958823410
  0.4667731498096799  0.5354199600128374  0.2571855999979646
  0.4723343840614548  0.2842618609035713  0.2402781518234894
  0.9672552955930676  0.2877942709412339  0.2363117914681460
  0.9737068002846826  0.5389769494444003  0.2402673014838700
  0.9703878524986422  0.0397358674922534  0.2448783216724609
  0.9704072446616523  0.7843963453016254  0.2451282536333485
  0.7183203495490711  0.7904124445705406  0.2633137969850573
  0.7267236448056790  0.0471920851542568  0.2505814846661878
  0.7232385420197780  0.5346029877774868  0.2509114846504735
  0.7187259252949172  0.2884637668131833  0.2394883219291275
  0.3017353454572028  0.4493815473360502  0.2489445799822309
  0.3036179160678026  0.7095076138769172  0.2541224368785234
  0.3044498319916016  0.1976265200892068  0.2412737640209772
  0.3021349215377911  0.9536804833292016  0.2444005325795665
  0.5579986378337470  0.9539684133720331  0.2491376411975273
  0.5537136052220759  0.2054462786914680  0.2413399885076196
  0.5567902851725045  0.7091412638630707  0.2721684224137486
  0.5514150894612492  0.4455857866494564  0.2545470967222471
  0.0548569828033511  0.4583401511890223  0.2354392745028917
  0.0574531752593611  0.7055667177215791  0.2458410087014486
  0.0566582009605041  0.2072042905789992  0.2358512132587857
  0.0534107081201326  0.9525837741823195  0.2458582195849827
  0.8086598397390211  0.9593372552682420  0.2518648179384100
  0.7934089981095879  0.2026336937608837  0.2392960090131152
  0.7980345346276226  0.6992170409640179  0.2533550559626844
  0.8027935066926544  0.4553075221606645  0.2439870972251042
Cartesian
  0.0025443700000000  0.0031494700000000  0.0138826000000000
 -0.0080779700000000  0.0007314810000000  0.0230643000000000
  0.0000000000000000  0.0000000000000000  0.0000000000000000
  0.0000000000000000  0.0000000000000000  0.0000000000000000
  0.0000000000000000  0.0000000000000000  0.0000000000000000
  0.0000000000000000  0.0000000000000000  0.0000000000000000
  0.0000000000000000  0.0000000000000000  0.0000000000000000
  0.0000000000000000  0.0000000000000000  0.0000000000000000
  0.0000000000000000  0.0000000000000000  0.0000000000000000
  0.0000000000000000  0.0000000000000000  0.0000000000000000
  0.0000000000000000  0.0000000000000000  0.0000000000000000
  0.0000000000000000  0.0000000000000000  0.0000000000000000
  0.0000000000000000  0.0000000000000000  0.0000000000000000
  0.0000000000000000  0.0000000000000000  0.0000000000000000
  0.0000000000000000  0.0000000000000000  0.0000000000000000
  0.0000000000000000  0.0000000000000000  0.0000000000000000
  0.0000000000000000  0.0000000000000000  0.0000000000000000
  0.0000000000000000  0.0000000000000000  0.0000000000000000
  0.0000000000000000  0.0000000000000000  0.0000000000000000
  0.0000000000000000  0.0000000000000000  0.0000000000000000
  0.0000000000000000  0.0000000000000000  0.0000000000000000
  0.0000000000000000  0.0000000000000000  0.0000000000000000
  0.0000000000000000  0.0000000000000000  0.0000000000000000
  0.0000000000000000  0.0000000000000000  0.0000000000000000
  0.0000000000000000  0.0000000000000000  0.0000000000000000
  0.0000000000000000  0.0000000000000000  0.0000000000000000
  0.0000000000000000  0.0000000000000000  0.0000000000000000
  0.0000000000000000  0.0000000000000000  0.0000000000000000
  0.0000000000000000  0.0000000000000000  0.0000000000000000
  0.0000000000000000  0.0000000000000000  0.0000000000000000
  0.0000000000000000  0.0000000000000000  0.0000000000000000
  0.0000000000000000  0.0000000000000000  0.0000000000000000
  0.0000000000000000  0.0000000000000000  0.0000000000000000
  0.0000000000000000  0.0000000000000000  0.0000000000000000
 -0.0082771700000000 -0.0024500400000000 -0.0020886500000000
  0.0010624700000000 -0.0072878000000000 -0.0003929770000000
 -0.0040103800000000  0.0003448760000000 -0.0045063800000000
  0.0033559800000000  0.0035341400000000 -0.0008334990000000
  0.0025339100000000  0.0007993780000000 -0.0019085700000000
  0.0012394100000000 -0.0040684500000000 -0.0015823300000000
  0.0047937300000000  0.0006219760000000  0.0027847000000000
 -0.0009082410000000 -0.0022913600000000  0.0010980500000000
  0.0049394000000000  0.0014075200000000 -0.0000033096300000
 -0.0020949100000000 -0.0046239600000000  0.0075358200000000
  0.0031188000000000 -0.0043976100000000  0.0155342000000000
 -0.0049115300000000 -0.0078218800000000 -0.0062176300000000
 -0.0097499900000000  0.0032363400000000 -0.0175289000000000
  0.0051530300000000  0.0004218370000000  0.0028339100000000
 -0.0007124970000000 -0.0053824600000000  0.0110153000000000
  0.0032869900000000 -0.0057007400000000 -0.0101524000000000
 -0.0071640300000000  0.0002716450000000 -0.0003688070000000
  0.0001312110000000  0.0010159900000000 -0.0044740100000000
  0.0062962400000000  0.0070182800000000  0.0100131000000000
 -0.0016112700000000 -0.0037937600000000 -0.0075395700000000
  0.0048676300000000  0.0016856700000000  0.0035069900000000
  0.0080453600000000 -0.0069445800000000  0.0036887300000000
 -0.0024529500000000 -0.0108770000000000 -0.0103592000000000
 -0.0078296100000000  0.0076962600000000 -0.0035004800000000
 -0.0032851800000000 -0.0049006400000000 -0.0044157700000000
 -0.0025569400000000 -0.0051808600000000 -0.0036469300000000
  0.0108723000000000  0.0035387700000000 -0.0016016400000000
  0.0020748600000000  0.0045581400000000 -0.0019636000000000
 -0.0018510400000000  0.0003685990000000 -0.0172654000000000
 -0.0093000800000000 -0.0100637000000000  0.0016682400000000
 -0.0057356800000000 -0.0170205000000000 -0.0086323900000000
 -0.0077315500000000 -0.0020533000000000  0.0005071130000000
  0.0005033490000000 -0.0027711200000000 -0.0066313800000000
  0.0001090020000000 -0.0076073000000000 -0.0099061000000000
  0.0038572200000000 -0.0005201590000000  0.0070024100000000
 -0.0027108400000000  0.0054404300000000 -0.0075609700000000
  0.0014283900000000 -0.0062696600000000 -0.0053002200000000
 -0.0048292000000000  0.0073852900000000  0.0037893600000000
 -0.0019535500000000 -0.0022887500000000 -0.0025706300000000
  0.0110914000000000  0.0008675020000000  0.0016356300000000
 -0.0046283200000000  0.0142521000000000 -0.0067615200000000
  0.0056222800000000 -0.0025893400000000 -0.0051832300000000
  0.0004360160000000  0.0045805000000000  0.0044012400000000
  0.0072372900000000  0.0022512600000000  0.0068162200000000
 -0.0027731000000000  0.0030721300000000  0.0003216110000000
  0.0013963200000000  0.0085885400000000  0.0040278800000000
 -0.0063439700000000  0.0075888000000000  0.0009808190000000
 -0.0064856200000000 -0.0071583900000000  0.0051815600000000
 -0.0163706000000000 -0.0095348400000000  0.0040767300000000
 -0.0097529900000000  0.0077474400000000 -0.0009967950000000
 -0.0087134300000000 -0.0008532530000000 -0.0002441490000000
  0.0021639600000000  0.0006039430000000  0.0086640100000000
 -0.0046848800000000  0.0035032900000000 -0.0010759600000000
  0.0024634000000000 -0.0034177900000000 -0.0079790500000000
  0.0031896400000000  0.0060203400000000  0.0139791000000000
 -0.0047883700000000 -0.0014126700000000  0.0106374000000000
 -0.0006896180000000  0.0051866800000000  0.0040383700000000
 -0.0023029300000000  0.0049280800000000  0.0052067900000000
 -0.0042913900000000 -0.0014489500000000  0.0025064200000000
 -0.0028174900000000  0.0016298700000000 -0.0067283400000000
  0.0041357800000000 -0.0001413180000000 -0.0023363100000000
 -0.0049894400000000 -0.0067432500000000 -0.0024614700000000
  0.0045353900000000 -0.0063242900000000  0.0059524200000000
  0.0023216800000000 -0.0066152700000000 -0.0014667100000000
