N  O  C 
 1.0000000000000000
     9.8654639999999993    0.0000000000000000    0.0000000000000000
    -4.9327329999999998    8.5437419999999999    0.0000000000000000
     0.0000000000000000    0.0000000000000000   26.7272740000000013
 N   O   C  
   1   1  96
Direct
  0.3055888290767750  0.2909088312825926  0.3564314115985042
  0.3579503223950259  0.4263916209080284  0.3451421944490112
  0.9996738951095920  0.0003257471960179  0.0003673101865907
  0.9996743064729685  0.2503259110586439  0.0003672716491775
  0.9996743140319351  0.5003252673126132  0.0003672611729876
  0.9996738931776165  0.7503257940139110  0.0003673083158425
  0.2496747054340223  0.0003257460255705  0.0003673083158425
  0.2496741037455550  0.2503259110586439  0.0003673180437332
  0.2496740160226370  0.5003252673126132  0.0003672720233272
  0.2496747040872707  0.7503257940139110  0.0003672615471372
  0.4996740990074530  0.0003257495369125  0.0003672611729876
  0.4996745092003820  0.2503259110586439  0.0003673086899921
  0.4996745167593484  0.5003252673126132  0.0003673202886310
  0.4996740959050300  0.7503257940139110  0.0003672720233272
  0.7496745044622801  0.0003257495369125  0.0003672716491775
  0.7496739010181415  0.2503259110586439  0.0003672664110826
  0.7496739085771078  0.5003252673126132  0.0003673086899921
  0.7496745013598571  0.7503257940139110  0.0003673180437332
  0.0830075800666932  0.1669924021582112  0.0003612972276933
  0.0830082377222149  0.4169929288595091  0.0003612515814370
  0.0830072316441136  0.6669922851134784  0.0003612691664702
  0.0830078244268629  0.9169928118147763  0.0003613047106862
  0.3330080503942927  0.1669924021582112  0.0003613129419783
  0.3330076295399743  0.4169929288595091  0.0003612968535437
  0.3330075215443150  0.6669922851134784  0.0003612568195320
  0.3330082298816900  0.9169928118147763  0.0003612691664702
  0.5830074422120520  0.1669924021582112  0.0003612687923205
  0.5830080349948014  0.4169929288595091  0.0003613159351754
  0.5830070289167002  0.6669922851134784  0.0003612968535437
  0.5830076216994495  0.9169928118147763  0.0003612515814370
  0.8330078476668792  0.1669924021582112  0.0003612523297363
  0.8330074268125608  0.4169929288595091  0.0003612687923205
  0.8330074343715272  0.6669922851134784  0.0003613129419783
  0.8330080271542766  0.9169928118147763  0.0003612972276933
  0.7926902036052228  0.9443297796211544  0.1380484968276226
  0.7937672647360156  0.1953242501938846  0.1312168985134810
  0.7984905524322780  0.4481794979295958  0.1299522727233612
  0.8005190487875389  0.6951403729185642  0.1380776804997023
  0.0457537630360297  0.9508749210825889  0.1322835991429579
  0.0464331536319794  0.1936177379888110  0.1346459799828445
  0.0531927762147719  0.4504138818798601  0.1280774088670622
  0.0475912365439418  0.6929504659667860  0.1317466944066200
  0.2861304916076485  0.9443122229112255  0.1332941773261276
  0.3026305054572657  0.2021456172248647  0.1320751977923375
  0.2982826507218839  0.4463969066481642  0.1357796533982478
  0.2920222126414622  0.6987640778478564  0.1385779185711195
  0.5401091136482310  0.9493767485020032  0.1359180887658053
  0.5505018680963774  0.1971536593684594  0.1361227486200052
  0.5485406187134456  0.4508773790219789  0.1365099934995241
  0.5421406548328102  0.6988132366356569  0.1365152315945128
  0.9603583779379651  0.0276116717943964  0.1351551976456709
  0.9691725650345128  0.2823540317579815  0.1318783950806207
  0.9611282340849702  0.5268815467508265  0.1300061502718160
  0.9699625200802998  0.7824709594461069  0.1337285650605445
  0.2115915469592708  0.0324300523119729  0.1333914562330599
  0.2140638268657065  0.2806697580521509  0.1343084970057178
  0.2189191230618917  0.5301798673227727  0.1326394154525448
  0.2103950254845905  0.7824697889987783  0.1337708439700959
  0.4578555270934227  0.0351604718400907  0.1348367963002886
  0.4660289312275021  0.2841389639340701  0.1329507079547282
  0.4642653848418747  0.5359794338359001  0.1321754698964062
  0.4542216907586223  0.7775492284294165  0.1420938027574380
  0.7105204389046011  0.0252727668976896  0.1368362519873894
  0.7137187709112813  0.2842981447707574  0.1312674087151574
  0.7207124024989694  0.5350243488157765  0.1401037008113884
  0.7116080679877548  0.7756215016792408  0.1384825104123975
  0.1025186758601143  0.3779280788207322  0.2512456002808218
  0.1085664276553525  0.6318765243613397  0.2689649531785396
  0.1075443272490665  0.1262210399143607  0.2517866206632222
  0.1057716962430942  0.8742246664283636  0.2673778103969750
  0.3578485350674031  0.8739870656206614  0.2596519944383404
  0.3574199327917467  0.1224135747544811  0.2551382531566818
  0.3558864695994646  0.6298457982462485  0.2493007704414599
  0.3580286752293025  0.3825443230846624  0.2425956347063303
  0.8607177565315889  0.3762964752446879  0.2671114158518373
  0.8588547164848617  0.6265533299109454  0.2670979464647236
  0.8604775975485426  0.1273575442704145  0.2606307699019361
  0.8630500621680244  0.8768991385741751  0.2670077764009902
  0.6077682602353791  0.8713254683954642  0.2628779126520722
  0.5988454711481813  0.1216644884641882  0.2653652594724026
  0.6104930940147710  0.6282516489847189  0.2545399878790482
  0.6131904964097122  0.3788972092087987  0.2546065865153326
  0.1894881663199674  0.5458638615257810  0.2564301918706711
  0.1898143346258039  0.7894257574725454  0.2655684227280343
  0.1898149319857183  0.2931888626786717  0.2447657026302046
  0.1923684015597074  0.0434228936220218  0.2583218924608622
  0.4364038519171925  0.0365408974194211  0.2587914502616316
  0.4434724745491258  0.2954349511022220  0.2440675393981444
  0.4421567034497401  0.7920428776992564  0.2612237970845811
  0.4427190742179249  0.5503782768721246  0.2460980495055351
  0.9415529316324356  0.5423092129888754  0.2692459395597172
  0.9373968115049720  0.7908829643966310  0.2676127763721807
  0.9406088931243967  0.2915104412094841  0.2609211100241648
  0.9446732629406159  0.0428403619865862  0.2578467224154622
  0.6890882661765260  0.0417953866116276  0.2643262459164373
  0.6902161048698769  0.2906993212107762  0.2591697155497414
  0.6966676270498696  0.7953845048223600  0.2620173684753634
  0.6964306917886732  0.5454647389867344  0.2594252597552597
Cartesian
 -0.0003351760000000 -0.0077032200000000  0.0198344000000000
 -0.0013447300000000  0.0092926100000000  0.0113763000000000
  0.0000000000000000  0.0000000000000000  0.0000000000000000
  0.0000000000000000  0.0000000000000000  0.0000000000000000
  0.0000000000000000  0.0000000000000000  0.0000000000000000
  0.0000000000000000  0.0000000000000000  0.0000000000000000
  0.0000000000000000  0.0000000000000000  0.0000000000000000
  0.0000000000000000  0.0000000000000000  0.0000000000000000
  0.0000000000000000  0.0000000000000000  0.0000000000000000
  0.0000000000000000  0.0000000000000000  0.0000000000000000
  0.0000000000000000  0.0000000000000000  0.0000000000000000
  0.0000000000000000  0.0000000000000000  0.0000000000000000
  0.0000000000000000  0.0000000000000000  0.0000000000000000
  0.0000000000000000  0.0000000000000000  0.0000000000000000
  0.0000000000000000  0.0000000000000000  0.0000000000000000
  0.0000000000000000  0.0000000000000000  0.0000000000000000
  0.0000000000000000  0.0000000000000000  0.0000000000000000
  0.0000000000000000  0.0000000000000000  0.0000000000000000
  0.0000000000000000  0.0000000000000000  0.0000000000000000
  0.0000000000000000  0.0000000000000000  0.0000000000000000
  0.0000000000000000  0.0000000000000000  0.0000000000000000
  0.0000000000000000  0.0000000000000000  0.0000000000000000
  0.0000000000000000  0.0000000000000000  0.0000000000000000
  0.0000000000000000  0.0000000000000000  0.0000000000000000
  0.0000000000000000  0.0000000000000000  0.0000000000000000
  0.0000000000000000  0.0000000000000000  0.0000000000000000
  0.0000000000000000  0.0000000000000000  0.0000000000000000
  0.0000000000000000  0.0000000000000000  0.0000000000000000
  0.0000000000000000  0.0000000000000000  0.0000000000000000
  0.0000000000000000  0.0000000000000000  0.0000000000000000
  0.0000000000000000  0.0000000000000000  0.0000000000000000
  0.0000000000000000  0.0000000000000000  0.0000000000000000
  0.0000000000000000  0.0000000000000000  0.0000000000000000
  0.0000000000000000  0.0000000000000000  0.0000000000000000
  0.0173084000000000  0.0032588900000000 -0.0019502800000000
  0.0026613100000000 -0.0028245500000000  0.0111282000000000
 -0.0037860300000000  0.0009087170000000 -0.0043913300000000
  0.0052260100000000  0.0015076300000000 -0.0063957000000000
 -0.0044773800000000 -0.0035044700000000 -0.0014091000000000
 -0.0007310920000000  0.0065806900000000  0.0053353100000000
  0.0086138400000000 -0.0083389100000000  0.0059476100000000
 -0.0034209700000000 -0.0038714900000000  0.0001885170000000
 -0.0019581800000000 -0.0005718440000000 -0.0000725809000000
 -0.0095026800000000  0.0013280200000000 -0.0071901300000000
 -0.0039713700000000  0.0028230900000000  0.0001259860000000
  0.0068315700000000  0.0019436800000000 -0.0162487000000000
 -0.0046510800000000  0.0036421200000000 -0.0042575600000000
  0.0093700800000000  0.0037775700000000  0.0018925900000000
 -0.0019297100000000  0.0014455100000000 -0.0035156200000000
 -0.0028636900000000 -0.0059852600000000  0.0003684410000000
 -0.0078226800000000  0.0036124200000000 -0.0045770600000000
 -0.0064918100000000 -0.0133716000000000 -0.0015722400000000
 -0.0102479000000000 -0.0036726500000000  0.0020698500000000
 -0.0016325200000000 -0.0067482900000000  0.0042682500000000
  0.0030411000000000  0.0006615940000000  0.0057014100000000
  0.0040074600000000 -0.0035725500000000  0.0107182000000000
 -0.0040136800000000 -0.0048667200000000  0.0023737900000000
  0.0056202900000000  0.0020353800000000  0.0106607000000000
  0.0007096080000000 -0.0022271000000000 -0.0040878400000000
 -0.0066695200000000  0.0002242960000000  0.0052393600000000
 -0.0056117200000000 -0.0003629470000000 -0.0072864600000000
 -0.0047940500000000 -0.0051415000000000 -0.0036484200000000
  0.0031747100000000  0.0027427900000000 -0.0007870820000000
  0.0044030800000000  0.0026237400000000 -0.0003942450000000
  0.0045586000000000 -0.0064791700000000 -0.0006360350000000
 -0.0054272100000000 -0.0003853780000000 -0.0027324400000000
 -0.0007697490000000  0.0025255600000000 -0.0053103700000000
 -0.0017819700000000  0.0047293300000000  0.0037423900000000
 -0.0035916500000000  0.0084194000000000 -0.0033233600000000
 -0.0025813700000000  0.0133345000000000  0.0008729690000000
 -0.0023409200000000 -0.0004481250000000 -0.0007971220000000
 -0.0047322900000000 -0.0003993660000000 -0.0015487200000000
  0.0070608000000000 -0.0034469500000000 -0.0067029400000000
 -0.0098565900000000  0.0024021600000000  0.0244754000000000
  0.0020244200000000 -0.0054967200000000 -0.0031471200000000
 -0.0089474100000000  0.0000086311500000 -0.0038998400000000
  0.0017573000000000 -0.0112724000000000 -0.0060579400000000
  0.0030002200000000 -0.0008475940000000  0.0004879870000000
 -0.0017044100000000 -0.0037193200000000 -0.0028009000000000
 -0.0053426000000000  0.0040815900000000 -0.0052681300000000
  0.0037553500000000 -0.0018882800000000  0.0015909400000000
  0.0039393200000000 -0.0013560700000000 -0.0064697200000000
  0.0045197300000000  0.0024641200000000 -0.0117144000000000
  0.0015319200000000  0.0003367110000000 -0.0076664100000000
 -0.0026779400000000  0.0020433200000000 -0.0121468000000000
  0.0049970800000000 -0.0071459000000000 -0.0033982900000000
 -0.0059240500000000 -0.0086297500000000  0.0057224200000000
  0.0018394100000000 -0.0000837428000000 -0.0077105800000000
 -0.0084542000000000  0.0105966000000000 -0.0029546300000000
 -0.0090276400000000  0.0010159500000000 -0.0221801000000000
 -0.0004078040000000 -0.0031852100000000  0.0083669500000000
 -0.0003661740000000 -0.0016156500000000 -0.0094421800000000
 -0.0068283100000000 -0.0046628700000000 -0.0008445270000000
 -0.0035491400000000  0.0069817100000000 -0.0047485100000000
 -0.0089446600000000  0.0091983200000000  0.0056434200000000
  0.0005319260000000 -0.0057442300000000  0.0067901400000000
 -0.0023197000000000 -0.0014677100000000 -0.0079839700000000
  0.0041778900000000  0.0010549900000000 -0.0061680900000000
