N  O  C 
 1.0000000000000000
     9.8654639999999993    0.0000000000000000    0.0000000000000000
    -4.9327329999999998    8.5437419999999999    0.0000000000000000
     0.0000000000000000    0.0000000000000000   26.7272740000000013
 N   O   C  
   1   1  96
Direct
  0.3269337161686152  0.1398216378724919  0.3258884538692573
  0.2698842155803245  0.0569203751705049  0.3617907310711896
  0.9996738951095920  0.0003257471960179  0.0003673101865907
  0.9996743064729685  0.2503259110586439  0.0003672716491775
  0.9996743140319351  0.5003252673126132  0.0003672611729876
  0.9996738931776165  0.7503257940139110  0.0003673083158425
  0.2496747054340223  0.0003257460255705  0.0003673083158425
  0.2496741037455550  0.2503259110586439  0.0003673180437332
  0.2496740160226370  0.5003252673126132  0.0003672720233272
  0.2496747040872707  0.7503257940139110  0.0003672615471372
  0.4996740990074530  0.0003257495369125  0.0003672611729876
  0.4996745092003820  0.2503259110586439  0.0003673086899921
  0.4996745167593484  0.5003252673126132  0.0003673202886310
  0.4996740959050300  0.7503257940139110  0.0003672720233272
  0.7496745044622801  0.0003257495369125  0.0003672716491775
  0.7496739010181415  0.2503259110586439  0.0003672664110826
  0.7496739085771078  0.5003252673126132  0.0003673086899921
  0.7496745013598571  0.7503257940139110  0.0003673180437332
  0.0830075800666932  0.1669924021582112  0.0003612972276933
  0.0830082377222149  0.4169929288595091  0.0003612515814370
  0.0830072316441136  0.6669922851134784  0.0003612691664702
  0.0830078244268629  0.9169928118147763  0.0003613047106862
  0.3330080503942927  0.1669924021582112  0.0003613129419783
  0.3330076295399743  0.4169929288595091  0.0003612968535437
  0.3330075215443150  0.6669922851134784  0.0003612568195320
  0.3330082298816900  0.9169928118147763  0.0003612691664702
  0.5830074422120520  0.1669924021582112  0.0003612687923205
  0.5830080349948014  0.4169929288595091  0.0003613159351754
  0.5830070289167002  0.6669922851134784  0.0003612968535437
  0.5830076216994495  0.9169928118147763  0.0003612515814370
  0.8330078476668792  0.1669924021582112  0.0003612523297363
  0.8330074268125608  0.4169929288595091  0.0003612687923205
  0.8330074343715272  0.6669922851134784  0.0003613129419783
  0.8330080271542766  0.9169928118147763  0.0003612972276933
  0.0470287974499997  0.3369249680058223  0.1288556401225205
  0.0590862184292985  0.5932599556494099  0.1314941433982381
  0.0421740385308553  0.8390351674945241  0.1267555381817091
  0.0520950930797382  0.0904042982571337  0.1297060822588940
  0.3049135942081738  0.3466443626223732  0.1300772387038050
  0.3046231694472061  0.5968977059466449  0.1265471368310887
  0.3010018712849560  0.8435999120759966  0.1334438371829465
  0.2980905763050594  0.0932083389222193  0.1283400619157794
  0.5542849560608217  0.3394706909454897  0.1309744495454344
  0.5518619313261321  0.5921796327651280  0.1324568304272258
  0.5499420860560547  0.8385318751432336  0.1338441772999371
  0.5534986475287036  0.0895996157187331  0.1323139052639637
  0.7989370770369739  0.3425676945769196  0.1323692794109867
  0.7973180996096525  0.5887431994084091  0.1318263882803761
  0.7893842616334442  0.8296013620261474  0.1317747556297736
  0.7962191068760599  0.0860579591471746  0.1352322724719326
  0.2161588193105489  0.4259175897399524  0.1294344496187677
  0.2204989746513394  0.6769563032217031  0.1294741094808247
  0.2194563628988577  0.9291256688228647  0.1295811162784503
  0.2170688164521873  0.1779185279705310  0.1269800279669374
  0.4781697798945078  0.4338602453117147  0.1289469326351801
  0.4667944461598666  0.6696538823386755  0.1345520684226906
  0.4611542481420340  0.9172432875430929  0.1306369665683077
  0.4666560310262861  0.1699723610567828  0.1287568646170201
  0.7199474593385289  0.4222072717083451  0.1299952999321966
  0.7097949893447014  0.6732448147427673  0.1335182929617139
  0.7148803447734723  0.9222141773475837  0.1338797215159316
  0.7185705817318644  0.1758948245394114  0.1330390072702514
  0.9726701443275019  0.4278991570672429  0.1317407080123472
  0.9661229973450932  0.6724348651913881  0.1336615922746181
  0.9554635282283425  0.9186653810473210  0.1277967966355267
  0.9632320793808019  0.1689330038290014  0.1347900275950327
  0.3086616190649173  0.2563244536176303  0.2450511788070867
  0.3130412672986339  0.5129064056475487  0.2631989330449487
  0.3077601106498294  0.0019393492921486  0.2418626755575597
  0.3126885373839750  0.7633704294909655  0.2598016542951593
  0.5543973097973589  0.7589356045629655  0.2685320620426909
  0.5586347186678867  0.0079571925275833  0.2552811783199439
  0.5535839360872443  0.5030360233256107  0.2642787289118972
  0.5594460282260260  0.2509368845641641  0.2520227090873540
  0.0611696456007447  0.2632137065936682  0.2504037635862154
  0.0624493656751860  0.5080818217591309  0.2630260759103229
  0.0579211209066545  0.0069480211364060  0.2465986617265943
  0.0598702933030237  0.7549279929098983  0.2574927768540854
  0.8123547536379934  0.7623778901563273  0.2612151916428140
  0.8135299917236115  0.0122935594263029  0.2608518923403861
  0.8085074212494195  0.5050386587048158  0.2646513819553764
  0.8080079738991998  0.2566474970803191  0.2615481848242361
  0.3908757434352185  0.4221616242625304  0.2537901919963854
  0.3878841649319992  0.6719924361011838  0.2663466539834927
  0.3902171265310592  0.1680048390974353  0.2463857705802694
  0.3970549641771661  0.9236034983266115  0.2542343076214956
  0.6408148618421943  0.9306495912446794  0.2660768920915766
  0.6450681777856561  0.1709613890494353  0.2535267906483841
  0.6418143061552889  0.6710794871848893  0.2672326403358607
  0.6425605893646152  0.4164990000868472  0.2620936950023410
  0.1495861376608528  0.4278301006748565  0.2552542395457165
  0.1446535078721249  0.6753890742487308  0.2598933209574609
  0.1458707123084097  0.1775533484040131  0.2475845460333890
  0.1418114448009356  0.9183622351892181  0.2443384237389866
  0.8918365157756573  0.9268819212939716  0.2546159402563838
  0.8925708757016112  0.1822632284542300  0.2578059401044790
  0.8926503981325614  0.6773507439714355  0.2640886608937372
  0.8921048186549576  0.4232396062521551  0.2660937288254687
Cartesian
 -0.0002312970000000 -0.0106657000000000  0.0133160000000000
  0.0006286530000000  0.0077959500000000  0.0139041000000000
  0.0000000000000000  0.0000000000000000  0.0000000000000000
  0.0000000000000000  0.0000000000000000  0.0000000000000000
  0.0000000000000000  0.0000000000000000  0.0000000000000000
  0.0000000000000000  0.0000000000000000  0.0000000000000000
  0.0000000000000000  0.0000000000000000  0.0000000000000000
  0.0000000000000000  0.0000000000000000  0.0000000000000000
  0.0000000000000000  0.0000000000000000  0.0000000000000000
  0.0000000000000000  0.0000000000000000  0.0000000000000000
  0.0000000000000000  0.0000000000000000  0.0000000000000000
  0.0000000000000000  0.0000000000000000  0.0000000000000000
  0.0000000000000000  0.0000000000000000  0.0000000000000000
  0.0000000000000000  0.0000000000000000  0.0000000000000000
  0.0000000000000000  0.0000000000000000  0.0000000000000000
  0.0000000000000000  0.0000000000000000  0.0000000000000000
  0.0000000000000000  0.0000000000000000  0.0000000000000000
  0.0000000000000000  0.0000000000000000  0.0000000000000000
  0.0000000000000000  0.0000000000000000  0.0000000000000000
  0.0000000000000000  0.0000000000000000  0.0000000000000000
  0.0000000000000000  0.0000000000000000  0.0000000000000000
  0.0000000000000000  0.0000000000000000  0.0000000000000000
  0.0000000000000000  0.0000000000000000  0.0000000000000000
  0.0000000000000000  0.0000000000000000  0.0000000000000000
  0.0000000000000000  0.0000000000000000  0.0000000000000000
  0.0000000000000000  0.0000000000000000  0.0000000000000000
  0.0000000000000000  0.0000000000000000  0.0000000000000000
  0.0000000000000000  0.0000000000000000  0.0000000000000000
  0.0000000000000000  0.0000000000000000  0.0000000000000000
  0.0000000000000000  0.0000000000000000  0.0000000000000000
  0.0000000000000000  0.0000000000000000  0.0000000000000000
  0.0000000000000000  0.0000000000000000  0.0000000000000000
  0.0000000000000000  0.0000000000000000  0.0000000000000000
  0.0000000000000000  0.0000000000000000  0.0000000000000000
 -0.0053865000000000 -0.0067756900000000 -0.0007390380000000
  0.0036093100000000 -0.0002294520000000 -0.0074625800000000
 -0.0043387500000000  0.0011761200000000  0.0061218100000000
 -0.0089100800000000  0.0051755300000000 -0.0016869100000000
 -0.0024193900000000 -0.0024700000000000  0.0005129890000000
  0.0043860400000000  0.0089009300000000  0.0050923500000000
 -0.0048655600000000 -0.0025737900000000 -0.0014835100000000
  0.0007819540000000  0.0023709300000000 -0.0032519900000000
  0.0062718400000000  0.0078601900000000  0.0020478900000000
  0.0096062800000000 -0.0087987200000000  0.0105312000000000
  0.0047937800000000  0.0077120000000000 -0.0006850520000000
  0.0073371900000000  0.0024080500000000 -0.0031502300000000
  0.0045445000000000  0.0011893600000000 -0.0080598100000000
  0.0034088900000000  0.0008510790000000 -0.0030620800000000
  0.0111369000000000  0.0038386200000000 -0.0022000000000000
  0.0005636280000000  0.0018950400000000  0.0104544000000000
  0.0038962300000000  0.0032319500000000  0.0089477300000000
 -0.0077815200000000 -0.0005866390000000 -0.0037338300000000
  0.0038824700000000  0.0073855500000000 -0.0072593400000000
 -0.0024348000000000  0.0053672500000000 -0.0044669200000000
 -0.0104362000000000  0.0001755280000000 -0.0132204000000000
 -0.0005442300000000 -0.0034897500000000 -0.0064231000000000
 -0.0024585700000000  0.0006926950000000 -0.0008233780000000
 -0.0031895000000000 -0.0043618600000000 -0.0024566900000000
  0.0000565487000000 -0.0026446900000000 -0.0019873300000000
  0.0028400100000000 -0.0141640000000000  0.0011718500000000
  0.0026648600000000 -0.0042930000000000  0.0074325500000000
 -0.0012940100000000  0.0037746200000000 -0.0117655000000000
  0.0011583500000000 -0.0104998000000000  0.0012887300000000
 -0.0007856970000000  0.0060653800000000 -0.0058413500000000
 -0.0023175000000000 -0.0079661200000000 -0.0040052700000000
 -0.0088496200000000  0.0036139400000000  0.0051268000000000
 -0.0118055000000000  0.0048580600000000 -0.0166730000000000
  0.0040931100000000 -0.0001657090000000 -0.0146643000000000
 -0.0017803100000000 -0.0067361800000000  0.0033233900000000
 -0.0044176400000000 -0.0027984900000000 -0.0022049900000000
  0.0019340800000000 -0.0003873900000000 -0.0091953500000000
 -0.0017529100000000 -0.0037368200000000 -0.0061503900000000
 -0.0104380000000000 -0.0006862730000000 -0.0132001000000000
 -0.0026807800000000  0.0083201500000000 -0.0059232200000000
  0.0089319100000000 -0.0047520700000000 -0.0098291700000000
  0.0005501010000000  0.0033054600000000 -0.0076185400000000
 -0.0043713300000000  0.0045838300000000 -0.0068708800000000
 -0.0081835600000000  0.0028335700000000 -0.0068164300000000
 -0.0076985900000000 -0.0035823100000000 -0.0041749500000000
 -0.0092814800000000  0.0008382570000000  0.0070714400000000
  0.0002461450000000  0.0001441320000000 -0.0094648400000000
  0.0030879900000000  0.0080277500000000 -0.0010429300000000
 -0.0008554150000000  0.0040900600000000  0.0127830000000000
  0.0014562800000000 -0.0045100400000000 -0.0032190900000000
 -0.0082145600000000 -0.0042157800000000  0.0047642100000000
  0.0060023800000000 -0.0016839700000000  0.0008683040000000
  0.0011950400000000  0.0001116750000000 -0.0016236400000000
 -0.0025075500000000 -0.0008365970000000 -0.0077726200000000
  0.0080218600000000 -0.0063583700000000  0.0037135200000000
 -0.0072009100000000 -0.0002464070000000  0.0001731970000000
 -0.0028746000000000  0.0020322400000000 -0.0029792300000000
 -0.0116827000000000  0.0024005100000000 -0.0015984900000000
  0.0007964710000000 -0.0019804200000000 -0.0049352400000000
  0.0033111600000000 -0.0026942000000000 -0.0088463100000000
  0.0017626000000000 -0.0118378000000000 -0.0132599000000000
  0.0041663000000000  0.0023220900000000 -0.0242130000000000
 -0.0070584100000000  0.0072622600000000  0.0126466000000000
 -0.0084926700000000  0.0012213800000000  0.0026435300000000
